p cnf 3844 22841
1 2 3 4 0
5 6 7 8 0
9 10 11 12 0
13 14 15 16 0
17 18 19 20 0
21 22 23 24 0
25 26 27 28 0
29 30 31 32 0
33 34 35 36 0
37 38 39 40 0
41 42 43 44 0
45 46 47 48 0
49 50 51 52 0
53 54 55 56 0
57 58 59 60 0
61 62 63 64 0
65 66 67 68 0
69 70 71 72 0
73 74 75 76 0
77 78 79 80 0
81 82 83 84 0
85 86 87 88 0
89 90 91 92 0
93 94 95 96 0
97 98 99 100 0
101 102 103 104 0
105 106 107 108 0
109 110 111 112 0
113 114 115 116 0
117 118 119 120 0
121 122 123 124 0
125 126 127 128 0
129 130 131 132 0
133 134 135 136 0
137 138 139 140 0
141 142 143 144 0
145 146 147 148 0
149 150 151 152 0
153 154 155 156 0
157 158 159 160 0
161 162 163 164 0
165 166 167 168 0
169 170 171 172 0
173 174 175 176 0
177 178 179 180 0
181 182 183 184 0
185 186 187 188 0
189 190 191 192 0
193 194 195 196 0
197 198 199 200 0
201 202 203 204 0
205 206 207 208 0
209 210 211 212 0
213 214 215 216 0
217 218 219 220 0
221 222 223 224 0
225 226 227 228 0
229 230 231 232 0
233 234 235 236 0
237 238 239 240 0
241 242 243 244 0
245 246 247 248 0
249 250 251 252 0
253 254 255 256 0
257 258 259 260 0
261 262 263 264 0
265 266 267 268 0
269 270 271 272 0
273 274 275 276 0
277 278 279 280 0
281 282 283 284 0
285 286 287 288 0
289 290 291 292 0
293 294 295 296 0
297 298 299 300 0
301 302 303 304 0
305 306 307 308 0
309 310 311 312 0
313 314 315 316 0
317 318 319 320 0
321 322 323 324 0
325 326 327 328 0
329 330 331 332 0
333 334 335 336 0
337 338 339 340 0
341 342 343 344 0
345 346 347 348 0
349 350 351 352 0
353 354 355 356 0
357 358 359 360 0
361 362 363 364 0
365 366 367 368 0
369 370 371 372 0
373 374 375 376 0
377 378 379 380 0
381 382 383 384 0
385 386 387 388 0
389 390 391 392 0
393 394 395 396 0
397 398 399 400 0
401 402 403 404 0
405 406 407 408 0
409 410 411 412 0
413 414 415 416 0
417 418 419 420 0
421 422 423 424 0
425 426 427 428 0
429 430 431 432 0
433 434 435 436 0
437 438 439 440 0
441 442 443 444 0
445 446 447 448 0
449 450 451 452 0
453 454 455 456 0
457 458 459 460 0
461 462 463 464 0
465 466 467 468 0
469 470 471 472 0
473 474 475 476 0
477 478 479 480 0
481 482 483 484 0
485 486 487 488 0
489 490 491 492 0
493 494 495 496 0
497 498 499 500 0
501 502 503 504 0
505 506 507 508 0
509 510 511 512 0
513 514 515 516 0
517 518 519 520 0
521 522 523 524 0
525 526 527 528 0
529 530 531 532 0
533 534 535 536 0
537 538 539 540 0
541 542 543 544 0
545 546 547 548 0
549 550 551 552 0
553 554 555 556 0
557 558 559 560 0
561 562 563 564 0
565 566 567 568 0
569 570 571 572 0
573 574 575 576 0
577 578 579 580 0
581 582 583 584 0
585 586 587 588 0
589 590 591 592 0
593 594 595 596 0
597 598 599 600 0
601 602 603 604 0
605 606 607 608 0
609 610 611 612 0
613 614 615 616 0
617 618 619 620 0
621 622 623 624 0
625 626 627 628 0
629 630 631 632 0
633 634 635 636 0
637 638 639 640 0
641 642 643 644 0
645 646 647 648 0
649 650 651 652 0
653 654 655 656 0
657 658 659 660 0
661 662 663 664 0
665 666 667 668 0
669 670 671 672 0
673 674 675 676 0
677 678 679 680 0
681 682 683 684 0
685 686 687 688 0
689 690 691 692 0
693 694 695 696 0
697 698 699 700 0
701 702 703 704 0
705 706 707 708 0
709 710 711 712 0
713 714 715 716 0
717 718 719 720 0
721 722 723 724 0
725 726 727 728 0
729 730 731 732 0
733 734 735 736 0
737 738 739 740 0
741 742 743 744 0
745 746 747 748 0
749 750 751 752 0
753 754 755 756 0
757 758 759 760 0
761 762 763 764 0
765 766 767 768 0
769 770 771 772 0
773 774 775 776 0
777 778 779 780 0
781 782 783 784 0
785 786 787 788 0
789 790 791 792 0
793 794 795 796 0
797 798 799 800 0
801 802 803 804 0
805 806 807 808 0
809 810 811 812 0
813 814 815 816 0
817 818 819 820 0
821 822 823 824 0
825 826 827 828 0
829 830 831 832 0
833 834 835 836 0
837 838 839 840 0
841 842 843 844 0
845 846 847 848 0
849 850 851 852 0
853 854 855 856 0
857 858 859 860 0
861 862 863 864 0
865 866 867 868 0
869 870 871 872 0
873 874 875 876 0
877 878 879 880 0
881 882 883 884 0
885 886 887 888 0
889 890 891 892 0
893 894 895 896 0
897 898 899 900 0
901 902 903 904 0
905 906 907 908 0
909 910 911 912 0
913 914 915 916 0
917 918 919 920 0
921 922 923 924 0
925 926 927 928 0
929 930 931 932 0
933 934 935 936 0
937 938 939 940 0
941 942 943 944 0
945 946 947 948 0
949 950 951 952 0
953 954 955 956 0
957 958 959 960 0
961 962 963 964 0
965 966 967 968 0
969 970 971 972 0
973 974 975 976 0
977 978 979 980 0
981 982 983 984 0
985 986 987 988 0
989 990 991 992 0
993 994 995 996 0
997 998 999 1000 0
1001 1002 1003 1004 0
1005 1006 1007 1008 0
1009 1010 1011 1012 0
1013 1014 1015 1016 0
1017 1018 1019 1020 0
1021 1022 1023 1024 0
1025 1026 1027 1028 0
1029 1030 1031 1032 0
1033 1034 1035 1036 0
1037 1038 1039 1040 0
1041 1042 1043 1044 0
1045 1046 1047 1048 0
1049 1050 1051 1052 0
1053 1054 1055 1056 0
1057 1058 1059 1060 0
1061 1062 1063 1064 0
1065 1066 1067 1068 0
1069 1070 1071 1072 0
1073 1074 1075 1076 0
1077 1078 1079 1080 0
1081 1082 1083 1084 0
1085 1086 1087 1088 0
1089 1090 1091 1092 0
1093 1094 1095 1096 0
1097 1098 1099 1100 0
1101 1102 1103 1104 0
1105 1106 1107 1108 0
1109 1110 1111 1112 0
1113 1114 1115 1116 0
1117 1118 1119 1120 0
1121 1122 1123 1124 0
1125 1126 1127 1128 0
1129 1130 1131 1132 0
1133 1134 1135 1136 0
1137 1138 1139 1140 0
1141 1142 1143 1144 0
1145 1146 1147 1148 0
1149 1150 1151 1152 0
1153 1154 1155 1156 0
1157 1158 1159 1160 0
1161 1162 1163 1164 0
1165 1166 1167 1168 0
1169 1170 1171 1172 0
1173 1174 1175 1176 0
1177 1178 1179 1180 0
1181 1182 1183 1184 0
1185 1186 1187 1188 0
1189 1190 1191 1192 0
1193 1194 1195 1196 0
1197 1198 1199 1200 0
1201 1202 1203 1204 0
1205 1206 1207 1208 0
1209 1210 1211 1212 0
1213 1214 1215 1216 0
1217 1218 1219 1220 0
1221 1222 1223 1224 0
1225 1226 1227 1228 0
1229 1230 1231 1232 0
1233 1234 1235 1236 0
1237 1238 1239 1240 0
1241 1242 1243 1244 0
1245 1246 1247 1248 0
1249 1250 1251 1252 0
1253 1254 1255 1256 0
1257 1258 1259 1260 0
1261 1262 1263 1264 0
1265 1266 1267 1268 0
1269 1270 1271 1272 0
1273 1274 1275 1276 0
1277 1278 1279 1280 0
1281 1282 1283 1284 0
1285 1286 1287 1288 0
1289 1290 1291 1292 0
1293 1294 1295 1296 0
1297 1298 1299 1300 0
1301 1302 1303 1304 0
1305 1306 1307 1308 0
1309 1310 1311 1312 0
1313 1314 1315 1316 0
1317 1318 1319 1320 0
1321 1322 1323 1324 0
1325 1326 1327 1328 0
1329 1330 1331 1332 0
1333 1334 1335 1336 0
1337 1338 1339 1340 0
1341 1342 1343 1344 0
1345 1346 1347 1348 0
1349 1350 1351 1352 0
1353 1354 1355 1356 0
1357 1358 1359 1360 0
1361 1362 1363 1364 0
1365 1366 1367 1368 0
1369 1370 1371 1372 0
1373 1374 1375 1376 0
1377 1378 1379 1380 0
1381 1382 1383 1384 0
1385 1386 1387 1388 0
1389 1390 1391 1392 0
1393 1394 1395 1396 0
1397 1398 1399 1400 0
1401 1402 1403 1404 0
1405 1406 1407 1408 0
1409 1410 1411 1412 0
1413 1414 1415 1416 0
1417 1418 1419 1420 0
1421 1422 1423 1424 0
1425 1426 1427 1428 0
1429 1430 1431 1432 0
1433 1434 1435 1436 0
1437 1438 1439 1440 0
1441 1442 1443 1444 0
1445 1446 1447 1448 0
1449 1450 1451 1452 0
1453 1454 1455 1456 0
1457 1458 1459 1460 0
1461 1462 1463 1464 0
1465 1466 1467 1468 0
1469 1470 1471 1472 0
1473 1474 1475 1476 0
1477 1478 1479 1480 0
1481 1482 1483 1484 0
1485 1486 1487 1488 0
1489 1490 1491 1492 0
1493 1494 1495 1496 0
1497 1498 1499 1500 0
1501 1502 1503 1504 0
1505 1506 1507 1508 0
1509 1510 1511 1512 0
1513 1514 1515 1516 0
1517 1518 1519 1520 0
1521 1522 1523 1524 0
1525 1526 1527 1528 0
1529 1530 1531 1532 0
1533 1534 1535 1536 0
1537 1538 1539 1540 0
1541 1542 1543 1544 0
1545 1546 1547 1548 0
1549 1550 1551 1552 0
1553 1554 1555 1556 0
1557 1558 1559 1560 0
1561 1562 1563 1564 0
1565 1566 1567 1568 0
1569 1570 1571 1572 0
1573 1574 1575 1576 0
1577 1578 1579 1580 0
1581 1582 1583 1584 0
1585 1586 1587 1588 0
1589 1590 1591 1592 0
1593 1594 1595 1596 0
1597 1598 1599 1600 0
1601 1602 1603 1604 0
1605 1606 1607 1608 0
1609 1610 1611 1612 0
1613 1614 1615 1616 0
1617 1618 1619 1620 0
1621 1622 1623 1624 0
1625 1626 1627 1628 0
1629 1630 1631 1632 0
1633 1634 1635 1636 0
1637 1638 1639 1640 0
1641 1642 1643 1644 0
1645 1646 1647 1648 0
1649 1650 1651 1652 0
1653 1654 1655 1656 0
1657 1658 1659 1660 0
1661 1662 1663 1664 0
1665 1666 1667 1668 0
1669 1670 1671 1672 0
1673 1674 1675 1676 0
1677 1678 1679 1680 0
1681 1682 1683 1684 0
1685 1686 1687 1688 0
1689 1690 1691 1692 0
1693 1694 1695 1696 0
1697 1698 1699 1700 0
1701 1702 1703 1704 0
1705 1706 1707 1708 0
1709 1710 1711 1712 0
1713 1714 1715 1716 0
1717 1718 1719 1720 0
1721 1722 1723 1724 0
1725 1726 1727 1728 0
1729 1730 1731 1732 0
1733 1734 1735 1736 0
1737 1738 1739 1740 0
1741 1742 1743 1744 0
1745 1746 1747 1748 0
1749 1750 1751 1752 0
1753 1754 1755 1756 0
1757 1758 1759 1760 0
1761 1762 1763 1764 0
1765 1766 1767 1768 0
1769 1770 1771 1772 0
1773 1774 1775 1776 0
1777 1778 1779 1780 0
1781 1782 1783 1784 0
1785 1786 1787 1788 0
1789 1790 1791 1792 0
1793 1794 1795 1796 0
1797 1798 1799 1800 0
1801 1802 1803 1804 0
1805 1806 1807 1808 0
1809 1810 1811 1812 0
1813 1814 1815 1816 0
1817 1818 1819 1820 0
1821 1822 1823 1824 0
1825 1826 1827 1828 0
1829 1830 1831 1832 0
1833 1834 1835 1836 0
1837 1838 1839 1840 0
1841 1842 1843 1844 0
1845 1846 1847 1848 0
1849 1850 1851 1852 0
1853 1854 1855 1856 0
1857 1858 1859 1860 0
1861 1862 1863 1864 0
1865 1866 1867 1868 0
1869 1870 1871 1872 0
1873 1874 1875 1876 0
1877 1878 1879 1880 0
1881 1882 1883 1884 0
1885 1886 1887 1888 0
1889 1890 1891 1892 0
1893 1894 1895 1896 0
1897 1898 1899 1900 0
1901 1902 1903 1904 0
1905 1906 1907 1908 0
1909 1910 1911 1912 0
1913 1914 1915 1916 0
1917 1918 1919 1920 0
1921 1922 1923 1924 0
1925 1926 1927 1928 0
1929 1930 1931 1932 0
1933 1934 1935 1936 0
1937 1938 1939 1940 0
1941 1942 1943 1944 0
1945 1946 1947 1948 0
1949 1950 1951 1952 0
1953 1954 1955 1956 0
1957 1958 1959 1960 0
1961 1962 1963 1964 0
1965 1966 1967 1968 0
1969 1970 1971 1972 0
1973 1974 1975 1976 0
1977 1978 1979 1980 0
1981 1982 1983 1984 0
1985 1986 1987 1988 0
1989 1990 1991 1992 0
1993 1994 1995 1996 0
1997 1998 1999 2000 0
2001 2002 2003 2004 0
2005 2006 2007 2008 0
2009 2010 2011 2012 0
2013 2014 2015 2016 0
2017 2018 2019 2020 0
2021 2022 2023 2024 0
2025 2026 2027 2028 0
2029 2030 2031 2032 0
2033 2034 2035 2036 0
2037 2038 2039 2040 0
2041 2042 2043 2044 0
2045 2046 2047 2048 0
2049 2050 2051 2052 0
2053 2054 2055 2056 0
2057 2058 2059 2060 0
2061 2062 2063 2064 0
2065 2066 2067 2068 0
2069 2070 2071 2072 0
2073 2074 2075 2076 0
2077 2078 2079 2080 0
2081 2082 2083 2084 0
2085 2086 2087 2088 0
2089 2090 2091 2092 0
2093 2094 2095 2096 0
2097 2098 2099 2100 0
2101 2102 2103 2104 0
2105 2106 2107 2108 0
2109 2110 2111 2112 0
2113 2114 2115 2116 0
2117 2118 2119 2120 0
2121 2122 2123 2124 0
2125 2126 2127 2128 0
2129 2130 2131 2132 0
2133 2134 2135 2136 0
2137 2138 2139 2140 0
2141 2142 2143 2144 0
2145 2146 2147 2148 0
2149 2150 2151 2152 0
2153 2154 2155 2156 0
2157 2158 2159 2160 0
2161 2162 2163 2164 0
2165 2166 2167 2168 0
2169 2170 2171 2172 0
2173 2174 2175 2176 0
2177 2178 2179 2180 0
2181 2182 2183 2184 0
2185 2186 2187 2188 0
2189 2190 2191 2192 0
2193 2194 2195 2196 0
2197 2198 2199 2200 0
2201 2202 2203 2204 0
2205 2206 2207 2208 0
2209 2210 2211 2212 0
2213 2214 2215 2216 0
2217 2218 2219 2220 0
2221 2222 2223 2224 0
2225 2226 2227 2228 0
2229 2230 2231 2232 0
2233 2234 2235 2236 0
2237 2238 2239 2240 0
2241 2242 2243 2244 0
2245 2246 2247 2248 0
2249 2250 2251 2252 0
2253 2254 2255 2256 0
2257 2258 2259 2260 0
2261 2262 2263 2264 0
2265 2266 2267 2268 0
2269 2270 2271 2272 0
2273 2274 2275 2276 0
2277 2278 2279 2280 0
2281 2282 2283 2284 0
2285 2286 2287 2288 0
2289 2290 2291 2292 0
2293 2294 2295 2296 0
2297 2298 2299 2300 0
2301 2302 2303 2304 0
2305 2306 2307 2308 0
2309 2310 2311 2312 0
2313 2314 2315 2316 0
2317 2318 2319 2320 0
2321 2322 2323 2324 0
2325 2326 2327 2328 0
2329 2330 2331 2332 0
2333 2334 2335 2336 0
2337 2338 2339 2340 0
2341 2342 2343 2344 0
2345 2346 2347 2348 0
2349 2350 2351 2352 0
2353 2354 2355 2356 0
2357 2358 2359 2360 0
2361 2362 2363 2364 0
2365 2366 2367 2368 0
2369 2370 2371 2372 0
2373 2374 2375 2376 0
2377 2378 2379 2380 0
2381 2382 2383 2384 0
2385 2386 2387 2388 0
2389 2390 2391 2392 0
2393 2394 2395 2396 0
2397 2398 2399 2400 0
2401 2402 2403 2404 0
2405 2406 2407 2408 0
2409 2410 2411 2412 0
2413 2414 2415 2416 0
2417 2418 2419 2420 0
2421 2422 2423 2424 0
2425 2426 2427 2428 0
2429 2430 2431 2432 0
2433 2434 2435 2436 0
2437 2438 2439 2440 0
2441 2442 2443 2444 0
2445 2446 2447 2448 0
2449 2450 2451 2452 0
2453 2454 2455 2456 0
2457 2458 2459 2460 0
2461 2462 2463 2464 0
2465 2466 2467 2468 0
2469 2470 2471 2472 0
2473 2474 2475 2476 0
2477 2478 2479 2480 0
2481 2482 2483 2484 0
2485 2486 2487 2488 0
2489 2490 2491 2492 0
2493 2494 2495 2496 0
2497 2498 2499 2500 0
2501 2502 2503 2504 0
2505 2506 2507 2508 0
2509 2510 2511 2512 0
2513 2514 2515 2516 0
2517 2518 2519 2520 0
2521 2522 2523 2524 0
2525 2526 2527 2528 0
2529 2530 2531 2532 0
2533 2534 2535 2536 0
2537 2538 2539 2540 0
2541 2542 2543 2544 0
2545 2546 2547 2548 0
2549 2550 2551 2552 0
2553 2554 2555 2556 0
2557 2558 2559 2560 0
2561 2562 2563 2564 0
2565 2566 2567 2568 0
2569 2570 2571 2572 0
2573 2574 2575 2576 0
2577 2578 2579 2580 0
2581 2582 2583 2584 0
2585 2586 2587 2588 0
2589 2590 2591 2592 0
2593 2594 2595 2596 0
2597 2598 2599 2600 0
2601 2602 2603 2604 0
2605 2606 2607 2608 0
2609 2610 2611 2612 0
2613 2614 2615 2616 0
2617 2618 2619 2620 0
2621 2622 2623 2624 0
2625 2626 2627 2628 0
2629 2630 2631 2632 0
2633 2634 2635 2636 0
2637 2638 2639 2640 0
2641 2642 2643 2644 0
2645 2646 2647 2648 0
2649 2650 2651 2652 0
2653 2654 2655 2656 0
2657 2658 2659 2660 0
2661 2662 2663 2664 0
2665 2666 2667 2668 0
2669 2670 2671 2672 0
2673 2674 2675 2676 0
2677 2678 2679 2680 0
2681 2682 2683 2684 0
2685 2686 2687 2688 0
2689 2690 2691 2692 0
2693 2694 2695 2696 0
2697 2698 2699 2700 0
2701 2702 2703 2704 0
2705 2706 2707 2708 0
2709 2710 2711 2712 0
2713 2714 2715 2716 0
2717 2718 2719 2720 0
2721 2722 2723 2724 0
2725 2726 2727 2728 0
2729 2730 2731 2732 0
2733 2734 2735 2736 0
2737 2738 2739 2740 0
2741 2742 2743 2744 0
2745 2746 2747 2748 0
2749 2750 2751 2752 0
2753 2754 2755 2756 0
2757 2758 2759 2760 0
2761 2762 2763 2764 0
2765 2766 2767 2768 0
2769 2770 2771 2772 0
2773 2774 2775 2776 0
2777 2778 2779 2780 0
2781 2782 2783 2784 0
2785 2786 2787 2788 0
2789 2790 2791 2792 0
2793 2794 2795 2796 0
2797 2798 2799 2800 0
2801 2802 2803 2804 0
2805 2806 2807 2808 0
2809 2810 2811 2812 0
2813 2814 2815 2816 0
2817 2818 2819 2820 0
2821 2822 2823 2824 0
2825 2826 2827 2828 0
2829 2830 2831 2832 0
2833 2834 2835 2836 0
2837 2838 2839 2840 0
2841 2842 2843 2844 0
2845 2846 2847 2848 0
2849 2850 2851 2852 0
2853 2854 2855 2856 0
2857 2858 2859 2860 0
2861 2862 2863 2864 0
2865 2866 2867 2868 0
2869 2870 2871 2872 0
2873 2874 2875 2876 0
2877 2878 2879 2880 0
2881 2882 2883 2884 0
2885 2886 2887 2888 0
2889 2890 2891 2892 0
2893 2894 2895 2896 0
2897 2898 2899 2900 0
2901 2902 2903 2904 0
2905 2906 2907 2908 0
2909 2910 2911 2912 0
2913 2914 2915 2916 0
2917 2918 2919 2920 0
2921 2922 2923 2924 0
2925 2926 2927 2928 0
2929 2930 2931 2932 0
2933 2934 2935 2936 0
2937 2938 2939 2940 0
2941 2942 2943 2944 0
2945 2946 2947 2948 0
2949 2950 2951 2952 0
2953 2954 2955 2956 0
2957 2958 2959 2960 0
2961 2962 2963 2964 0
2965 2966 2967 2968 0
2969 2970 2971 2972 0
2973 2974 2975 2976 0
2977 2978 2979 2980 0
2981 2982 2983 2984 0
2985 2986 2987 2988 0
2989 2990 2991 2992 0
2993 2994 2995 2996 0
2997 2998 2999 3000 0
3001 3002 3003 3004 0
3005 3006 3007 3008 0
3009 3010 3011 3012 0
3013 3014 3015 3016 0
3017 3018 3019 3020 0
3021 3022 3023 3024 0
3025 3026 3027 3028 0
3029 3030 3031 3032 0
3033 3034 3035 3036 0
3037 3038 3039 3040 0
3041 3042 3043 3044 0
3045 3046 3047 3048 0
3049 3050 3051 3052 0
3053 3054 3055 3056 0
3057 3058 3059 3060 0
3061 3062 3063 3064 0
3065 3066 3067 3068 0
3069 3070 3071 3072 0
3073 3074 3075 3076 0
3077 3078 3079 3080 0
3081 3082 3083 3084 0
3085 3086 3087 3088 0
3089 3090 3091 3092 0
3093 3094 3095 3096 0
3097 3098 3099 3100 0
3101 3102 3103 3104 0
3105 3106 3107 3108 0
3109 3110 3111 3112 0
3113 3114 3115 3116 0
3117 3118 3119 3120 0
3121 3122 3123 3124 0
3125 3126 3127 3128 0
3129 3130 3131 3132 0
3133 3134 3135 3136 0
3137 3138 3139 3140 0
3141 3142 3143 3144 0
3145 3146 3147 3148 0
3149 3150 3151 3152 0
3153 3154 3155 3156 0
3157 3158 3159 3160 0
3161 3162 3163 3164 0
3165 3166 3167 3168 0
3169 3170 3171 3172 0
3173 3174 3175 3176 0
3177 3178 3179 3180 0
3181 3182 3183 3184 0
3185 3186 3187 3188 0
3189 3190 3191 3192 0
3193 3194 3195 3196 0
3197 3198 3199 3200 0
3201 3202 3203 3204 0
3205 3206 3207 3208 0
3209 3210 3211 3212 0
3213 3214 3215 3216 0
3217 3218 3219 3220 0
3221 3222 3223 3224 0
3225 3226 3227 3228 0
3229 3230 3231 3232 0
3233 3234 3235 3236 0
3237 3238 3239 3240 0
3241 3242 3243 3244 0
3245 3246 3247 3248 0
3249 3250 3251 3252 0
3253 3254 3255 3256 0
3257 3258 3259 3260 0
3261 3262 3263 3264 0
3265 3266 3267 3268 0
3269 3270 3271 3272 0
3273 3274 3275 3276 0
3277 3278 3279 3280 0
3281 3282 3283 3284 0
3285 3286 3287 3288 0
3289 3290 3291 3292 0
3293 3294 3295 3296 0
3297 3298 3299 3300 0
3301 3302 3303 3304 0
3305 3306 3307 3308 0
3309 3310 3311 3312 0
3313 3314 3315 3316 0
3317 3318 3319 3320 0
3321 3322 3323 3324 0
3325 3326 3327 3328 0
3329 3330 3331 3332 0
3333 3334 3335 3336 0
3337 3338 3339 3340 0
3341 3342 3343 3344 0
3345 3346 3347 3348 0
3349 3350 3351 3352 0
3353 3354 3355 3356 0
3357 3358 3359 3360 0
3361 3362 3363 3364 0
3365 3366 3367 3368 0
3369 3370 3371 3372 0
3373 3374 3375 3376 0
3377 3378 3379 3380 0
3381 3382 3383 3384 0
3385 3386 3387 3388 0
3389 3390 3391 3392 0
3393 3394 3395 3396 0
3397 3398 3399 3400 0
3401 3402 3403 3404 0
3405 3406 3407 3408 0
3409 3410 3411 3412 0
3413 3414 3415 3416 0
3417 3418 3419 3420 0
3421 3422 3423 3424 0
3425 3426 3427 3428 0
3429 3430 3431 3432 0
3433 3434 3435 3436 0
3437 3438 3439 3440 0
3441 3442 3443 3444 0
3445 3446 3447 3448 0
3449 3450 3451 3452 0
3453 3454 3455 3456 0
3457 3458 3459 3460 0
3461 3462 3463 3464 0
3465 3466 3467 3468 0
3469 3470 3471 3472 0
3473 3474 3475 3476 0
3477 3478 3479 3480 0
3481 3482 3483 3484 0
3485 3486 3487 3488 0
3489 3490 3491 3492 0
3493 3494 3495 3496 0
3497 3498 3499 3500 0
3501 3502 3503 3504 0
3505 3506 3507 3508 0
3509 3510 3511 3512 0
3513 3514 3515 3516 0
3517 3518 3519 3520 0
3521 3522 3523 3524 0
3525 3526 3527 3528 0
3529 3530 3531 3532 0
3533 3534 3535 3536 0
3537 3538 3539 3540 0
3541 3542 3543 3544 0
3545 3546 3547 3548 0
3549 3550 3551 3552 0
3553 3554 3555 3556 0
3557 3558 3559 3560 0
3561 3562 3563 3564 0
3565 3566 3567 3568 0
3569 3570 3571 3572 0
3573 3574 3575 3576 0
3577 3578 3579 3580 0
3581 3582 3583 3584 0
3585 3586 3587 3588 0
3589 3590 3591 3592 0
3593 3594 3595 3596 0
3597 3598 3599 3600 0
3601 3602 3603 3604 0
3605 3606 3607 3608 0
3609 3610 3611 3612 0
3613 3614 3615 3616 0
3617 3618 3619 3620 0
3621 3622 3623 3624 0
3625 3626 3627 3628 0
3629 3630 3631 3632 0
3633 3634 3635 3636 0
3637 3638 3639 3640 0
3641 3642 3643 3644 0
3645 3646 3647 3648 0
3649 3650 3651 3652 0
3653 3654 3655 3656 0
3657 3658 3659 3660 0
3661 3662 3663 3664 0
3665 3666 3667 3668 0
3669 3670 3671 3672 0
3673 3674 3675 3676 0
3677 3678 3679 3680 0
3681 3682 3683 3684 0
3685 3686 3687 3688 0
3689 3690 3691 3692 0
3693 3694 3695 3696 0
3697 3698 3699 3700 0
3701 3702 3703 3704 0
3705 3706 3707 3708 0
3709 3710 3711 3712 0
3713 3714 3715 3716 0
3717 3718 3719 3720 0
3721 3722 3723 3724 0
3725 3726 3727 3728 0
3729 3730 3731 3732 0
3733 3734 3735 3736 0
3737 3738 3739 3740 0
3741 3742 3743 3744 0
3745 3746 3747 3748 0
3749 3750 3751 3752 0
3753 3754 3755 3756 0
3757 3758 3759 3760 0
3761 3762 3763 3764 0
3765 3766 3767 3768 0
3769 3770 3771 3772 0
3773 3774 3775 3776 0
3777 3778 3779 3780 0
3781 3782 3783 3784 0
3785 3786 3787 3788 0
3789 3790 3791 3792 0
3793 3794 3795 3796 0
3797 3798 3799 3800 0
3801 3802 3803 3804 0
3805 3806 3807 3808 0
3809 3810 3811 3812 0
3813 3814 3815 3816 0
3817 3818 3819 3820 0
3821 3822 3823 3824 0
3825 3826 3827 3828 0
3829 3830 3831 3832 0
3833 3834 3835 3836 0
3837 3838 3839 3840 0
3841 3842 3843 3844 0
-1 -497 0
-2 -498 0
-3 -499 0
-4 -500 0
-1 -633 0
-2 -634 0
-3 -635 0
-4 -636 0
-1 -1877 0
-2 -1878 0
-3 -1879 0
-4 -1880 0
-1 -3281 0
-2 -3282 0
-3 -3283 0
-4 -3284 0
-1 -3613 0
-2 -3614 0
-3 -3615 0
-4 -3616 0
-5 -509 0
-6 -510 0
-7 -511 0
-8 -512 0
-5 -853 0
-6 -854 0
-7 -855 0
-8 -856 0
-5 -1881 0
-6 -1882 0
-7 -1883 0
-8 -1884 0
-5 -3045 0
-6 -3046 0
-7 -3047 0
-8 -3048 0
-5 -3597 0
-6 -3598 0
-7 -3599 0
-8 -3600 0
-9 -545 0
-10 -546 0
-11 -547 0
-12 -548 0
-9 -857 0
-10 -858 0
-11 -859 0
-12 -860 0
-9 -1885 0
-10 -1886 0
-11 -1887 0
-12 -1888 0
-9 -3305 0
-10 -3306 0
-11 -3307 0
-12 -3308 0
-9 -3389 0
-10 -3390 0
-11 -3391 0
-12 -3392 0
-13 -549 0
-14 -550 0
-15 -551 0
-16 -552 0
-13 -861 0
-14 -862 0
-15 -863 0
-16 -864 0
-13 -1889 0
-14 -1890 0
-15 -1891 0
-16 -1892 0
-13 -3037 0
-14 -3038 0
-15 -3039 0
-16 -3040 0
-13 -3713 0
-14 -3714 0
-15 -3715 0
-16 -3716 0
-17 -481 0
-18 -482 0
-19 -483 0
-20 -484 0
-17 -673 0
-18 -674 0
-19 -675 0
-20 -676 0
-17 -1893 0
-18 -1894 0
-19 -1895 0
-20 -1896 0
-17 -3213 0
-18 -3214 0
-19 -3215 0
-20 -3216 0
-17 -3633 0
-18 -3634 0
-19 -3635 0
-20 -3636 0
-21 -525 0
-22 -526 0
-23 -527 0
-24 -528 0
-21 -589 0
-22 -590 0
-23 -591 0
-24 -592 0
-21 -1897 0
-22 -1898 0
-23 -1899 0
-24 -1900 0
-21 -2993 0
-22 -2994 0
-23 -2995 0
-24 -2996 0
-21 -3349 0
-22 -3350 0
-23 -3351 0
-24 -3352 0
-25 -581 0
-26 -582 0
-27 -583 0
-28 -584 0
-25 -585 0
-26 -586 0
-27 -587 0
-28 -588 0
-25 -1901 0
-26 -1902 0
-27 -1903 0
-28 -1904 0
-25 -3285 0
-26 -3286 0
-27 -3287 0
-28 -3288 0
-25 -3641 0
-26 -3642 0
-27 -3643 0
-28 -3644 0
-29 -485 0
-30 -486 0
-31 -487 0
-32 -488 0
-29 -905 0
-30 -906 0
-31 -907 0
-32 -908 0
-29 -1905 0
-30 -1906 0
-31 -1907 0
-32 -1908 0
-29 -3221 0
-30 -3222 0
-31 -3223 0
-32 -3224 0
-29 -3773 0
-30 -3774 0
-31 -3775 0
-32 -3776 0
-33 -681 0
-34 -682 0
-35 -683 0
-36 -684 0
-33 -865 0
-34 -866 0
-35 -867 0
-36 -868 0
-33 -1909 0
-34 -1910 0
-35 -1911 0
-36 -1912 0
-33 -3301 0
-34 -3302 0
-35 -3303 0
-36 -3304 0
-33 -3337 0
-34 -3338 0
-35 -3339 0
-36 -3340 0
-37 -529 0
-38 -530 0
-39 -531 0
-40 -532 0
-37 -685 0
-38 -686 0
-39 -687 0
-40 -688 0
-37 -1913 0
-38 -1914 0
-39 -1915 0
-40 -1916 0
-37 -3261 0
-38 -3262 0
-39 -3263 0
-40 -3264 0
-37 -3433 0
-38 -3434 0
-39 -3435 0
-40 -3436 0
-41 -689 0
-42 -690 0
-43 -691 0
-44 -692 0
-41 -881 0
-42 -882 0
-43 -883 0
-44 -884 0
-41 -1917 0
-42 -1918 0
-43 -1919 0
-44 -1920 0
-41 -2977 0
-42 -2978 0
-43 -2979 0
-44 -2980 0
-41 -3541 0
-42 -3542 0
-43 -3543 0
-44 -3544 0
-45 -501 0
-46 -502 0
-47 -503 0
-48 -504 0
-45 -925 0
-46 -926 0
-47 -927 0
-48 -928 0
-45 -1921 0
-46 -1922 0
-47 -1923 0
-48 -1924 0
-45 -3149 0
-46 -3150 0
-47 -3151 0
-48 -3152 0
-45 -3517 0
-46 -3518 0
-47 -3519 0
-48 -3520 0
-49 -693 0
-50 -694 0
-51 -695 0
-52 -696 0
-49 -893 0
-50 -894 0
-51 -895 0
-52 -896 0
-49 -1925 0
-50 -1926 0
-51 -1927 0
-52 -1928 0
-49 -2901 0
-50 -2902 0
-51 -2903 0
-52 -2904 0
-49 -3733 0
-50 -3734 0
-51 -3735 0
-52 -3736 0
-53 -617 0
-54 -618 0
-55 -619 0
-56 -620 0
-53 -697 0
-54 -698 0
-55 -699 0
-56 -700 0
-53 -1929 0
-54 -1930 0
-55 -1931 0
-56 -1932 0
-53 -3065 0
-54 -3066 0
-55 -3067 0
-56 -3068 0
-53 -3661 0
-54 -3662 0
-55 -3663 0
-56 -3664 0
-57 -613 0
-58 -614 0
-59 -615 0
-60 -616 0
-57 -701 0
-58 -702 0
-59 -703 0
-60 -704 0
-57 -1933 0
-58 -1934 0
-59 -1935 0
-60 -1936 0
-57 -3025 0
-58 -3026 0
-59 -3027 0
-60 -3028 0
-57 -3657 0
-58 -3658 0
-59 -3659 0
-60 -3660 0
-61 -661 0
-62 -662 0
-63 -663 0
-64 -664 0
-61 -953 0
-62 -954 0
-63 -955 0
-64 -956 0
-61 -1937 0
-62 -1938 0
-63 -1939 0
-64 -1940 0
-61 -2909 0
-62 -2910 0
-63 -2911 0
-64 -2912 0
-61 -3745 0
-62 -3746 0
-63 -3747 0
-64 -3748 0
-65 -489 0
-66 -490 0
-67 -491 0
-68 -492 0
-65 -701 0
-66 -702 0
-67 -703 0
-68 -704 0
-65 -1941 0
-66 -1942 0
-67 -1943 0
-68 -1944 0
-65 -2885 0
-66 -2886 0
-67 -2887 0
-68 -2888 0
-65 -3429 0
-66 -3430 0
-67 -3431 0
-68 -3432 0
-69 -493 0
-70 -494 0
-71 -495 0
-72 -496 0
-69 -697 0
-70 -698 0
-71 -699 0
-72 -700 0
-69 -1945 0
-70 -1946 0
-71 -1947 0
-72 -1948 0
-69 -3237 0
-70 -3238 0
-71 -3239 0
-72 -3240 0
-69 -3789 0
-70 -3790 0
-71 -3791 0
-72 -3792 0
-73 -593 0
-74 -594 0
-75 -595 0
-76 -596 0
-73 -645 0
-74 -646 0
-75 -647 0
-76 -648 0
-73 -1949 0
-74 -1950 0
-75 -1951 0
-76 -1952 0
-73 -2897 0
-74 -2898 0
-75 -2899 0
-76 -2900 0
-73 -3325 0
-74 -3326 0
-75 -3327 0
-76 -3328 0
-77 -625 0
-78 -626 0
-79 -627 0
-80 -628 0
-77 -769 0
-78 -770 0
-79 -771 0
-80 -772 0
-77 -1953 0
-78 -1954 0
-79 -1955 0
-80 -1956 0
-77 -3009 0
-78 -3010 0
-79 -3011 0
-80 -3012 0
-77 -3421 0
-78 -3422 0
-79 -3423 0
-80 -3424 0
-81 -629 0
-82 -630 0
-83 -631 0
-84 -632 0
-81 -773 0
-82 -774 0
-83 -775 0
-84 -776 0
-81 -1957 0
-82 -1958 0
-83 -1959 0
-84 -1960 0
-81 -3085 0
-82 -3086 0
-83 -3087 0
-84 -3088 0
-81 -3425 0
-82 -3426 0
-83 -3427 0
-84 -3428 0
-85 -557 0
-86 -558 0
-87 -559 0
-88 -560 0
-85 -749 0
-86 -750 0
-87 -751 0
-88 -752 0
-85 -1961 0
-86 -1962 0
-87 -1963 0
-88 -1964 0
-85 -3109 0
-86 -3110 0
-87 -3111 0
-88 -3112 0
-85 -3717 0
-86 -3718 0
-87 -3719 0
-88 -3720 0
-89 -753 0
-90 -754 0
-91 -755 0
-92 -756 0
-89 -761 0
-90 -762 0
-91 -763 0
-92 -764 0
-89 -1965 0
-90 -1966 0
-91 -1967 0
-92 -1968 0
-89 -3073 0
-90 -3074 0
-91 -3075 0
-92 -3076 0
-89 -3705 0
-90 -3706 0
-91 -3707 0
-92 -3708 0
-93 -757 0
-94 -758 0
-95 -759 0
-96 -760 0
-93 -765 0
-94 -766 0
-95 -767 0
-96 -768 0
-93 -1969 0
-94 -1970 0
-95 -1971 0
-96 -1972 0
-93 -3297 0
-94 -3298 0
-95 -3299 0
-96 -3300 0
-93 -3701 0
-94 -3702 0
-95 -3703 0
-96 -3704 0
-97 -625 0
-98 -626 0
-99 -627 0
-100 -628 0
-97 -733 0
-98 -734 0
-99 -735 0
-100 -736 0
-97 -1973 0
-98 -1974 0
-99 -1975 0
-100 -1976 0
-97 -3121 0
-98 -3122 0
-99 -3123 0
-100 -3124 0
-97 -3669 0
-98 -3670 0
-99 -3671 0
-100 -3672 0
-101 -505 0
-102 -506 0
-103 -507 0
-104 -508 0
-101 -901 0
-102 -902 0
-103 -903 0
-104 -904 0
-101 -1977 0
-102 -1978 0
-103 -1979 0
-104 -1980 0
-101 -3145 0
-102 -3146 0
-103 -3147 0
-104 -3148 0
-101 -3785 0
-102 -3786 0
-103 -3787 0
-104 -3788 0
-105 -709 0
-106 -710 0
-107 -711 0
-108 -712 0
-105 -793 0
-106 -794 0
-107 -795 0
-108 -796 0
-105 -1981 0
-106 -1982 0
-107 -1983 0
-108 -1984 0
-105 -3157 0
-106 -3158 0
-107 -3159 0
-108 -3160 0
-105 -3393 0
-106 -3394 0
-107 -3395 0
-108 -3396 0
-109 -669 0
-110 -670 0
-111 -671 0
-112 -672 0
-109 -789 0
-110 -790 0
-111 -791 0
-112 -792 0
-109 -1985 0
-110 -1986 0
-111 -1987 0
-112 -1988 0
-109 -3153 0
-110 -3154 0
-111 -3155 0
-112 -3156 0
-109 -3397 0
-110 -3398 0
-111 -3399 0
-112 -3400 0
-113 -553 0
-114 -554 0
-115 -555 0
-116 -556 0
-113 -689 0
-114 -690 0
-115 -691 0
-116 -692 0
-113 -1989 0
-114 -1990 0
-115 -1991 0
-116 -1992 0
-113 -3125 0
-114 -3126 0
-115 -3127 0
-116 -3128 0
-113 -3381 0
-114 -3382 0
-115 -3383 0
-116 -3384 0
-117 -493 0
-118 -494 0
-119 -495 0
-120 -496 0
-117 -605 0
-118 -606 0
-119 -607 0
-120 -608 0
-117 -1993 0
-118 -1994 0
-119 -1995 0
-120 -1996 0
-117 -3029 0
-118 -3030 0
-119 -3031 0
-120 -3032 0
-117 -3353 0
-118 -3354 0
-119 -3355 0
-120 -3356 0
-121 -485 0
-122 -486 0
-123 -487 0
-124 -488 0
-121 -921 0
-122 -922 0
-123 -923 0
-124 -924 0
-121 -1997 0
-122 -1998 0
-123 -1999 0
-124 -2000 0
-121 -3257 0
-122 -3258 0
-123 -3259 0
-124 -3260 0
-121 -3617 0
-122 -3618 0
-123 -3619 0
-124 -3620 0
-125 -597 0
-126 -598 0
-127 -599 0
-128 -600 0
-125 -637 0
-126 -638 0
-127 -639 0
-128 -640 0
-125 -2001 0
-126 -2002 0
-127 -2003 0
-128 -2004 0
-125 -3209 0
-126 -3210 0
-127 -3211 0
-128 -3212 0
-125 -3521 0
-126 -3522 0
-127 -3523 0
-128 -3524 0
-129 -805 0
-130 -806 0
-131 -807 0
-132 -808 0
-129 -925 0
-130 -926 0
-131 -927 0
-132 -928 0
-129 -2005 0
-130 -2006 0
-131 -2007 0
-132 -2008 0
-129 -3165 0
-130 -3166 0
-131 -3167 0
-132 -3168 0
-129 -3561 0
-130 -3562 0
-131 -3563 0
-132 -3564 0
-133 -637 0
-134 -638 0
-135 -639 0
-136 -640 0
-133 -781 0
-134 -782 0
-135 -783 0
-136 -784 0
-133 -2009 0
-134 -2010 0
-135 -2011 0
-136 -2012 0
-133 -3189 0
-134 -3190 0
-135 -3191 0
-136 -3192 0
-133 -3729 0
-134 -3730 0
-135 -3731 0
-136 -3732 0
-137 -777 0
-138 -778 0
-139 -779 0
-140 -780 0
-137 -929 0
-138 -930 0
-139 -931 0
-140 -932 0
-137 -2013 0
-138 -2014 0
-139 -2015 0
-140 -2016 0
-137 -3193 0
-138 -3194 0
-139 -3195 0
-140 -3196 0
-137 -3725 0
-138 -3726 0
-139 -3727 0
-140 -3728 0
-141 -745 0
-142 -746 0
-143 -747 0
-144 -748 0
-141 -865 0
-142 -866 0
-143 -867 0
-144 -868 0
-141 -2017 0
-142 -2018 0
-143 -2019 0
-144 -2020 0
-141 -2877 0
-142 -2878 0
-143 -2879 0
-144 -2880 0
-141 -3593 0
-142 -3594 0
-143 -3595 0
-144 -3596 0
-145 -557 0
-146 -558 0
-147 -559 0
-148 -560 0
-145 -949 0
-146 -950 0
-147 -951 0
-148 -952 0
-145 -2021 0
-146 -2022 0
-147 -2023 0
-148 -2024 0
-145 -2997 0
-146 -2998 0
-147 -2999 0
-148 -3000 0
-145 -3545 0
-146 -3546 0
-147 -3547 0
-148 -3548 0
-149 -561 0
-150 -562 0
-151 -563 0
-152 -564 0
-149 -681 0
-150 -682 0
-151 -683 0
-152 -684 0
-149 -2025 0
-150 -2026 0
-151 -2027 0
-152 -2028 0
-149 -3069 0
-150 -3070 0
-151 -3071 0
-152 -3072 0
-149 -3505 0
-150 -3506 0
-151 -3507 0
-152 -3508 0
-153 -785 0
-154 -786 0
-155 -787 0
-156 -788 0
-153 -841 0
-154 -842 0
-155 -843 0
-156 -844 0
-153 -2029 0
-154 -2030 0
-155 -2031 0
-156 -2032 0
-153 -3041 0
-154 -3042 0
-155 -3043 0
-156 -3044 0
-153 -3601 0
-154 -3602 0
-155 -3603 0
-156 -3604 0
-157 -613 0
-158 -614 0
-159 -615 0
-160 -616 0
-157 -957 0
-158 -958 0
-159 -959 0
-160 -960 0
-157 -2033 0
-158 -2034 0
-159 -2035 0
-160 -2036 0
-157 -2857 0
-158 -2858 0
-159 -2859 0
-160 -2860 0
-157 -3513 0
-158 -3514 0
-159 -3515 0
-160 -3516 0
-161 -569 0
-162 -570 0
-163 -571 0
-164 -572 0
-161 -849 0
-162 -850 0
-163 -851 0
-164 -852 0
-161 -2037 0
-162 -2038 0
-163 -2039 0
-164 -2040 0
-161 -2981 0
-162 -2982 0
-163 -2983 0
-164 -2984 0
-161 -3609 0
-162 -3610 0
-163 -3611 0
-164 -3612 0
-165 -821 0
-166 -822 0
-167 -823 0
-168 -824 0
-165 -885 0
-166 -886 0
-167 -887 0
-168 -888 0
-165 -2041 0
-166 -2042 0
-167 -2043 0
-168 -2044 0
-165 -3293 0
-166 -3294 0
-167 -3295 0
-168 -3296 0
-165 -3485 0
-166 -3486 0
-167 -3487 0
-168 -3488 0
-169 -825 0
-170 -826 0
-171 -827 0
-172 -828 0
-169 -845 0
-170 -846 0
-171 -847 0
-172 -848 0
-169 -2045 0
-170 -2046 0
-171 -2047 0
-172 -2048 0
-169 -3185 0
-170 -3186 0
-171 -3187 0
-172 -3188 0
-169 -3481 0
-170 -3482 0
-171 -3483 0
-172 -3484 0
-173 -813 0
-174 -814 0
-175 -815 0
-176 -816 0
-173 -829 0
-174 -830 0
-175 -831 0
-176 -832 0
-173 -2049 0
-174 -2050 0
-175 -2051 0
-176 -2052 0
-173 -2913 0
-174 -2914 0
-175 -2915 0
-176 -2916 0
-173 -3749 0
-174 -3750 0
-175 -3751 0
-176 -3752 0
-177 -661 0
-178 -662 0
-179 -663 0
-180 -664 0
-177 -873 0
-178 -874 0
-179 -875 0
-180 -876 0
-177 -2053 0
-178 -2054 0
-179 -2055 0
-180 -2056 0
-177 -3241 0
-178 -3242 0
-179 -3243 0
-180 -3244 0
-177 -3625 0
-178 -3626 0
-179 -3627 0
-180 -3628 0
-181 -541 0
-182 -542 0
-183 -543 0
-184 -544 0
-181 -813 0
-182 -814 0
-183 -815 0
-184 -816 0
-181 -2057 0
-182 -2058 0
-183 -2059 0
-184 -2060 0
-181 -3101 0
-182 -3102 0
-183 -3103 0
-184 -3104 0
-181 -3697 0
-182 -3698 0
-183 -3699 0
-184 -3700 0
-185 -817 0
-186 -818 0
-187 -819 0
-188 -820 0
-185 -933 0
-186 -934 0
-187 -935 0
-188 -936 0
-185 -2061 0
-186 -2062 0
-187 -2063 0
-188 -2064 0
-185 -3097 0
-186 -3098 0
-187 -3099 0
-188 -3100 0
-185 -3693 0
-186 -3694 0
-187 -3695 0
-188 -3696 0
-189 -589 0
-190 -590 0
-191 -591 0
-192 -592 0
-189 -693 0
-190 -694 0
-191 -695 0
-192 -696 0
-189 -2065 0
-190 -2066 0
-191 -2067 0
-192 -2068 0
-189 -2893 0
-190 -2894 0
-191 -2895 0
-192 -2896 0
-189 -3465 0
-190 -3466 0
-191 -3467 0
-192 -3468 0
-193 -889 0
-194 -890 0
-195 -891 0
-196 -892 0
-193 -941 0
-194 -942 0
-195 -943 0
-196 -944 0
-193 -2069 0
-194 -2070 0
-195 -2071 0
-196 -2072 0
-193 -2953 0
-194 -2954 0
-195 -2955 0
-196 -2956 0
-193 -3765 0
-194 -3766 0
-195 -3767 0
-196 -3768 0
-197 -717 0
-198 -718 0
-199 -719 0
-200 -720 0
-197 -893 0
-198 -894 0
-199 -895 0
-200 -896 0
-197 -2073 0
-198 -2074 0
-199 -2075 0
-200 -2076 0
-197 -3061 0
-198 -3062 0
-199 -3063 0
-200 -3064 0
-197 -3473 0
-198 -3474 0
-199 -3475 0
-200 -3476 0
-201 -513 0
-202 -514 0
-203 -515 0
-204 -516 0
-201 -873 0
-202 -874 0
-203 -875 0
-204 -876 0
-201 -2077 0
-202 -2078 0
-203 -2079 0
-204 -2080 0
-201 -2849 0
-202 -2850 0
-203 -2851 0
-204 -2852 0
-201 -3361 0
-202 -3362 0
-203 -3363 0
-204 -3364 0
-205 -517 0
-206 -518 0
-207 -519 0
-208 -520 0
-205 -541 0
-206 -542 0
-207 -543 0
-208 -544 0
-205 -2081 0
-206 -2082 0
-207 -2083 0
-208 -2084 0
-205 -2989 0
-206 -2990 0
-207 -2991 0
-208 -2992 0
-205 -3441 0
-206 -3442 0
-207 -3443 0
-208 -3444 0
-209 -521 0
-210 -522 0
-211 -523 0
-212 -524 0
-209 -933 0
-210 -934 0
-211 -935 0
-212 -936 0
-209 -2085 0
-210 -2086 0
-211 -2087 0
-212 -2088 0
-209 -2841 0
-210 -2842 0
-211 -2843 0
-212 -2844 0
-209 -3573 0
-210 -3574 0
-211 -3575 0
-212 -3576 0
-213 -529 0
-214 -530 0
-215 -531 0
-216 -532 0
-213 -849 0
-214 -850 0
-215 -851 0
-216 -852 0
-213 -2089 0
-214 -2090 0
-215 -2091 0
-216 -2092 0
-213 -3161 0
-214 -3162 0
-215 -3163 0
-216 -3164 0
-213 -3793 0
-214 -3794 0
-215 -3795 0
-216 -3796 0
-217 -533 0
-218 -534 0
-219 -535 0
-220 -536 0
-217 -885 0
-218 -886 0
-219 -887 0
-220 -888 0
-217 -2093 0
-218 -2094 0
-219 -2095 0
-220 -2096 0
-217 -3137 0
-218 -3138 0
-219 -3139 0
-220 -3140 0
-217 -3777 0
-218 -3778 0
-219 -3779 0
-220 -3780 0
-221 -537 0
-222 -538 0
-223 -539 0
-224 -540 0
-221 -845 0
-222 -846 0
-223 -847 0
-224 -848 0
-221 -2097 0
-222 -2098 0
-223 -2099 0
-224 -2100 0
-221 -3133 0
-222 -3134 0
-223 -3135 0
-224 -3136 0
-221 -3553 0
-222 -3554 0
-223 -3555 0
-224 -3556 0
-225 -489 0
-226 -490 0
-227 -491 0
-228 -492 0
-225 -737 0
-226 -738 0
-227 -739 0
-228 -740 0
-225 -2101 0
-226 -2102 0
-227 -2103 0
-228 -2104 0
-225 -3033 0
-226 -3034 0
-227 -3035 0
-228 -3036 0
-225 -3357 0
-226 -3358 0
-227 -3359 0
-228 -3360 0
-229 -585 0
-230 -586 0
-231 -587 0
-232 -588 0
-229 -945 0
-230 -946 0
-231 -947 0
-232 -948 0
-229 -2105 0
-230 -2106 0
-231 -2107 0
-232 -2108 0
-229 -2889 0
-230 -2890 0
-231 -2891 0
-232 -2892 0
-229 -3461 0
-230 -3462 0
-231 -3463 0
-232 -3464 0
-233 -573 0
-234 -574 0
-235 -575 0
-236 -576 0
-233 -721 0
-234 -722 0
-235 -723 0
-236 -724 0
-233 -2109 0
-234 -2110 0
-235 -2111 0
-236 -2112 0
-233 -2985 0
-234 -2986 0
-235 -2987 0
-236 -2988 0
-233 -3605 0
-234 -3606 0
-235 -3607 0
-236 -3608 0
-237 -821 0
-238 -822 0
-239 -823 0
-240 -824 0
-237 -921 0
-238 -922 0
-239 -923 0
-240 -924 0
-237 -2113 0
-238 -2114 0
-239 -2115 0
-240 -2116 0
-237 -2925 0
-238 -2926 0
-239 -2927 0
-240 -2928 0
-237 -3537 0
-238 -3538 0
-239 -3539 0
-240 -3540 0
-241 -709 0
-242 -710 0
-243 -711 0
-244 -712 0
-241 -713 0
-242 -714 0
-243 -715 0
-244 -716 0
-241 -2117 0
-242 -2118 0
-243 -2119 0
-244 -2120 0
-241 -3173 0
-242 -3174 0
-243 -3175 0
-244 -3176 0
-241 -3581 0
-242 -3582 0
-243 -3583 0
-244 -3584 0
-245 -513 0
-246 -514 0
-247 -515 0
-248 -516 0
-245 -901 0
-246 -902 0
-247 -903 0
-248 -904 0
-245 -2121 0
-246 -2122 0
-247 -2123 0
-248 -2124 0
-245 -3265 0
-246 -3266 0
-247 -3267 0
-248 -3268 0
-245 -3445 0
-246 -3446 0
-247 -3447 0
-248 -3448 0
-249 -817 0
-250 -818 0
-251 -819 0
-252 -820 0
-249 -937 0
-250 -938 0
-251 -939 0
-252 -940 0
-249 -2125 0
-250 -2126 0
-251 -2127 0
-252 -2128 0
-249 -2917 0
-250 -2918 0
-251 -2919 0
-252 -2920 0
-249 -3753 0
-250 -3754 0
-251 -3755 0
-252 -3756 0
-253 -577 0
-254 -578 0
-255 -579 0
-256 -580 0
-253 -665 0
-254 -666 0
-255 -667 0
-256 -668 0
-253 -2129 0
-254 -2130 0
-255 -2131 0
-256 -2132 0
-253 -3201 0
-254 -3202 0
-255 -3203 0
-256 -3204 0
-253 -3629 0
-254 -3630 0
-255 -3631 0
-256 -3632 0
-257 -705 0
-258 -706 0
-259 -707 0
-260 -708 0
-257 -929 0
-258 -930 0
-259 -931 0
-260 -932 0
-257 -2133 0
-258 -2134 0
-259 -2135 0
-260 -2136 0
-257 -3141 0
-258 -3142 0
-259 -3143 0
-260 -3144 0
-257 -3525 0
-258 -3526 0
-259 -3527 0
-260 -3528 0
-261 -509 0
-262 -510 0
-263 -511 0
-264 -512 0
-261 -773 0
-262 -774 0
-263 -775 0
-264 -776 0
-261 -2137 0
-262 -2138 0
-263 -2139 0
-264 -2140 0
-261 -3021 0
-262 -3022 0
-263 -3023 0
-264 -3024 0
-261 -3685 0
-262 -3686 0
-263 -3687 0
-264 -3688 0
-265 -769 0
-266 -770 0
-267 -771 0
-268 -772 0
-265 -841 0
-266 -842 0
-267 -843 0
-268 -844 0
-265 -2141 0
-266 -2142 0
-267 -2143 0
-268 -2144 0
-265 -3017 0
-266 -3018 0
-267 -3019 0
-268 -3020 0
-265 -3557 0
-266 -3558 0
-267 -3559 0
-268 -3560 0
-269 -565 0
-270 -566 0
-271 -567 0
-272 -568 0
-269 -737 0
-270 -738 0
-271 -739 0
-272 -740 0
-269 -2145 0
-270 -2146 0
-271 -2147 0
-272 -2148 0
-269 -3177 0
-270 -3178 0
-271 -3179 0
-272 -3180 0
-269 -3781 0
-270 -3782 0
-271 -3783 0
-272 -3784 0
-273 -569 0
-274 -570 0
-275 -571 0
-276 -572 0
-273 -581 0
-274 -582 0
-275 -583 0
-276 -584 0
-273 -2149 0
-274 -2150 0
-275 -2151 0
-276 -2152 0
-273 -2921 0
-274 -2922 0
-275 -2923 0
-276 -2924 0
-273 -3741 0
-274 -3742 0
-275 -3743 0
-276 -3744 0
-277 -525 0
-278 -526 0
-279 -527 0
-280 -528 0
-277 -573 0
-278 -574 0
-279 -575 0
-280 -576 0
-277 -2153 0
-278 -2154 0
-279 -2155 0
-280 -2156 0
-277 -3253 0
-278 -3254 0
-279 -3255 0
-280 -3256 0
-277 -3457 0
-278 -3458 0
-279 -3459 0
-280 -3460 0
-281 -641 0
-282 -642 0
-283 -643 0
-284 -644 0
-281 -937 0
-282 -938 0
-283 -939 0
-284 -940 0
-281 -2157 0
-282 -2158 0
-283 -2159 0
-284 -2160 0
-281 -3229 0
-282 -3230 0
-283 -3231 0
-284 -3232 0
-281 -3321 0
-282 -3322 0
-283 -3323 0
-284 -3324 0
-285 -713 0
-286 -714 0
-287 -715 0
-288 -716 0
-285 -829 0
-286 -830 0
-287 -831 0
-288 -832 0
-285 -2161 0
-286 -2162 0
-287 -2163 0
-288 -2164 0
-285 -2933 0
-286 -2934 0
-287 -2935 0
-288 -2936 0
-285 -3469 0
-286 -3470 0
-287 -3471 0
-288 -3472 0
-289 -565 0
-290 -566 0
-291 -567 0
-292 -568 0
-289 -745 0
-290 -746 0
-291 -747 0
-292 -748 0
-289 -2165 0
-290 -2166 0
-291 -2167 0
-292 -2168 0
-289 -2949 0
-290 -2950 0
-291 -2951 0
-292 -2952 0
-289 -3549 0
-290 -3550 0
-291 -3551 0
-292 -3552 0
-293 -741 0
-294 -742 0
-295 -743 0
-296 -744 0
-293 -897 0
-294 -898 0
-295 -899 0
-296 -900 0
-293 -2169 0
-294 -2170 0
-295 -2171 0
-296 -2172 0
-293 -3309 0
-294 -3310 0
-295 -3311 0
-296 -3312 0
-293 -3477 0
-294 -3478 0
-295 -3479 0
-296 -3480 0
-297 -533 0
-298 -534 0
-299 -535 0
-300 -536 0
-297 -797 0
-298 -798 0
-299 -799 0
-300 -800 0
-297 -2173 0
-298 -2174 0
-299 -2175 0
-300 -2176 0
-297 -3057 0
-298 -3058 0
-299 -3059 0
-300 -3060 0
-297 -3317 0
-298 -3318 0
-299 -3319 0
-300 -3320 0
-301 -537 0
-302 -538 0
-303 -539 0
-304 -540 0
-301 -801 0
-302 -802 0
-303 -803 0
-304 -804 0
-301 -2177 0
-302 -2178 0
-303 -2179 0
-304 -2180 0
-301 -3053 0
-302 -3054 0
-303 -3055 0
-304 -3056 0
-301 -3437 0
-302 -3438 0
-303 -3439 0
-304 -3440 0
-305 -481 0
-306 -482 0
-307 -483 0
-308 -484 0
-305 -913 0
-306 -914 0
-307 -915 0
-308 -916 0
-305 -2181 0
-306 -2182 0
-307 -2183 0
-308 -2184 0
-305 -3093 0
-306 -3094 0
-307 -3095 0
-308 -3096 0
-305 -3649 0
-306 -3650 0
-307 -3651 0
-308 -3652 0
-309 -501 0
-310 -502 0
-311 -503 0
-312 -504 0
-309 -837 0
-310 -838 0
-311 -839 0
-312 -840 0
-309 -2185 0
-310 -2186 0
-311 -2187 0
-312 -2188 0
-309 -2937 0
-310 -2938 0
-311 -2939 0
-312 -2940 0
-309 -3493 0
-310 -3494 0
-311 -3495 0
-312 -3496 0
-313 -505 0
-314 -506 0
-315 -507 0
-316 -508 0
-313 -833 0
-314 -834 0
-315 -835 0
-316 -836 0
-313 -2189 0
-314 -2190 0
-315 -2191 0
-316 -2192 0
-313 -2881 0
-314 -2882 0
-315 -2883 0
-316 -2884 0
-313 -3569 0
-314 -3570 0
-315 -3571 0
-316 -3572 0
-317 -653 0
-318 -654 0
-319 -655 0
-320 -656 0
-317 -777 0
-318 -778 0
-319 -779 0
-320 -780 0
-317 -2193 0
-318 -2194 0
-319 -2195 0
-320 -2196 0
-317 -2945 0
-318 -2946 0
-319 -2947 0
-320 -2948 0
-317 -3333 0
-318 -3334 0
-319 -3335 0
-320 -3336 0
-321 -729 0
-322 -730 0
-323 -731 0
-324 -732 0
-321 -781 0
-322 -782 0
-323 -783 0
-324 -784 0
-321 -2197 0
-322 -2198 0
-323 -2199 0
-324 -2200 0
-321 -2941 0
-322 -2942 0
-323 -2943 0
-324 -2944 0
-321 -3757 0
-322 -3758 0
-323 -3759 0
-324 -3760 0
-325 -869 0
-326 -870 0
-327 -871 0
-328 -872 0
-325 -949 0
-326 -950 0
-327 -951 0
-328 -952 0
-325 -2201 0
-326 -2202 0
-327 -2203 0
-328 -2204 0
-325 -3049 0
-326 -3050 0
-327 -3051 0
-328 -3052 0
-325 -3341 0
-326 -3342 0
-327 -3343 0
-328 -3344 0
-329 -833 0
-330 -834 0
-331 -835 0
-332 -836 0
-329 -857 0
-330 -858 0
-331 -859 0
-332 -860 0
-329 -2205 0
-330 -2206 0
-331 -2207 0
-332 -2208 0
-329 -2965 0
-330 -2966 0
-331 -2967 0
-332 -2968 0
-329 -3769 0
-330 -3770 0
-331 -3771 0
-332 -3772 0
-333 -653 0
-334 -654 0
-335 -655 0
-336 -656 0
-333 -657 0
-334 -658 0
-335 -659 0
-336 -660 0
-333 -2209 0
-334 -2210 0
-335 -2211 0
-336 -2212 0
-333 -3205 0
-334 -3206 0
-335 -3207 0
-336 -3208 0
-333 -3621 0
-334 -3622 0
-335 -3623 0
-336 -3624 0
-337 -729 0
-338 -730 0
-339 -731 0
-340 -732 0
-337 -733 0
-338 -734 0
-339 -735 0
-340 -736 0
-337 -2213 0
-338 -2214 0
-339 -2215 0
-340 -2216 0
-337 -3077 0
-338 -3078 0
-339 -3079 0
-340 -3080 0
-337 -3689 0
-338 -3690 0
-339 -3691 0
-340 -3692 0
-341 -553 0
-342 -554 0
-343 -555 0
-344 -556 0
-341 -717 0
-342 -718 0
-343 -719 0
-344 -720 0
-341 -2217 0
-342 -2218 0
-343 -2219 0
-344 -2220 0
-341 -3105 0
-342 -3106 0
-343 -3107 0
-344 -3108 0
-341 -3373 0
-342 -3374 0
-343 -3375 0
-344 -3376 0
-345 -877 0
-346 -878 0
-347 -879 0
-348 -880 0
-345 -941 0
-346 -942 0
-347 -943 0
-348 -944 0
-345 -2221 0
-346 -2222 0
-347 -2223 0
-348 -2224 0
-345 -3313 0
-346 -3314 0
-347 -3315 0
-348 -3316 0
-345 -3369 0
-346 -3370 0
-347 -3371 0
-348 -3372 0
-349 -765 0
-350 -766 0
-351 -767 0
-352 -768 0
-349 -797 0
-350 -798 0
-351 -799 0
-352 -800 0
-349 -2225 0
-350 -2226 0
-351 -2227 0
-352 -2228 0
-349 -3005 0
-350 -3006 0
-351 -3007 0
-352 -3008 0
-349 -3677 0
-350 -3678 0
-351 -3679 0
-352 -3680 0
-353 -793 0
-354 -794 0
-355 -795 0
-356 -796 0
-353 -917 0
-354 -918 0
-355 -919 0
-356 -920 0
-353 -2229 0
-354 -2230 0
-355 -2231 0
-356 -2232 0
-353 -2969 0
-354 -2970 0
-355 -2971 0
-356 -2972 0
-353 -3413 0
-354 -3414 0
-355 -3415 0
-356 -3416 0
-357 -789 0
-358 -790 0
-359 -791 0
-360 -792 0
-357 -913 0
-358 -914 0
-359 -915 0
-360 -916 0
-357 -2233 0
-358 -2234 0
-359 -2235 0
-360 -2236 0
-357 -2973 0
-358 -2974 0
-359 -2975 0
-360 -2976 0
-357 -3709 0
-358 -3710 0
-359 -3711 0
-360 -3712 0
-361 -621 0
-362 -622 0
-363 -623 0
-364 -624 0
-361 -633 0
-362 -634 0
-363 -635 0
-364 -636 0
-361 -2237 0
-362 -2238 0
-363 -2239 0
-364 -2240 0
-361 -3225 0
-362 -3226 0
-363 -3227 0
-364 -3228 0
-361 -3665 0
-362 -3666 0
-363 -3667 0
-364 -3668 0
-365 -545 0
-366 -546 0
-367 -547 0
-368 -548 0
-365 -649 0
-366 -650 0
-367 -651 0
-368 -652 0
-365 -2241 0
-366 -2242 0
-367 -2243 0
-368 -2244 0
-365 -3089 0
-366 -3090 0
-367 -3091 0
-368 -3092 0
-365 -3721 0
-366 -3722 0
-367 -3723 0
-368 -3724 0
-369 -641 0
-370 -642 0
-371 -643 0
-372 -644 0
-369 -669 0
-370 -670 0
-371 -671 0
-372 -672 0
-369 -2245 0
-370 -2246 0
-371 -2247 0
-372 -2248 0
-369 -3169 0
-370 -3170 0
-371 -3171 0
-372 -3172 0
-369 -3577 0
-370 -3578 0
-371 -3579 0
-372 -3580 0
-373 -601 0
-374 -602 0
-375 -603 0
-376 -604 0
-373 -917 0
-374 -918 0
-375 -919 0
-376 -920 0
-373 -2249 0
-374 -2250 0
-375 -2251 0
-376 -2252 0
-373 -2961 0
-374 -2962 0
-375 -2963 0
-376 -2964 0
-373 -3653 0
-374 -3654 0
-375 -3655 0
-376 -3656 0
-377 -705 0
-378 -706 0
-379 -707 0
-380 -708 0
-377 -809 0
-378 -810 0
-379 -811 0
-380 -812 0
-377 -2253 0
-378 -2254 0
-379 -2255 0
-380 -2256 0
-377 -2853 0
-378 -2854 0
-379 -2855 0
-380 -2856 0
-377 -3501 0
-378 -3502 0
-379 -3503 0
-380 -3504 0
-381 -597 0
-382 -598 0
-383 -599 0
-384 -600 0
-381 -909 0
-382 -910 0
-383 -911 0
-384 -912 0
-381 -2257 0
-382 -2258 0
-383 -2259 0
-384 -2260 0
-381 -3277 0
-382 -3278 0
-383 -3279 0
-384 -3280 0
-381 -3497 0
-382 -3498 0
-383 -3499 0
-384 -3500 0
-385 -621 0
-386 -622 0
-387 -623 0
-388 -624 0
-385 -725 0
-386 -726 0
-387 -727 0
-388 -728 0
-385 -2261 0
-386 -2262 0
-387 -2263 0
-388 -2264 0
-385 -2865 0
-386 -2866 0
-387 -2867 0
-388 -2868 0
-385 -3409 0
-386 -3410 0
-387 -3411 0
-388 -3412 0
-389 -609 0
-390 -610 0
-391 -611 0
-392 -612 0
-389 -905 0
-390 -906 0
-391 -907 0
-392 -908 0
-389 -2265 0
-390 -2266 0
-391 -2267 0
-392 -2268 0
-389 -3197 0
-390 -3198 0
-391 -3199 0
-392 -3200 0
-389 -3405 0
-390 -3406 0
-391 -3407 0
-392 -3408 0
-393 -629 0
-394 -630 0
-395 -631 0
-396 -632 0
-393 -657 0
-394 -658 0
-395 -659 0
-396 -660 0
-393 -2269 0
-394 -2270 0
-395 -2271 0
-396 -2272 0
-393 -3117 0
-394 -3118 0
-395 -3119 0
-396 -3120 0
-393 -3673 0
-394 -3674 0
-395 -3675 0
-396 -3676 0
-397 -649 0
-398 -650 0
-399 -651 0
-400 -652 0
-397 -953 0
-398 -954 0
-399 -955 0
-400 -956 0
-397 -2273 0
-398 -2274 0
-399 -2275 0
-400 -2276 0
-397 -3289 0
-398 -3290 0
-399 -3291 0
-400 -3292 0
-397 -3329 0
-398 -3330 0
-399 -3331 0
-400 -3332 0
-401 -889 0
-402 -890 0
-403 -891 0
-404 -892 0
-401 -945 0
-402 -946 0
-403 -947 0
-404 -948 0
-401 -2277 0
-402 -2278 0
-403 -2279 0
-404 -2280 0
-401 -2905 0
-402 -2906 0
-403 -2907 0
-404 -2908 0
-401 -3401 0
-402 -3402 0
-403 -3403 0
-404 -3404 0
-405 -549 0
-406 -550 0
-407 -551 0
-408 -552 0
-405 -645 0
-406 -646 0
-407 -647 0
-408 -648 0
-405 -2281 0
-406 -2282 0
-407 -2283 0
-408 -2284 0
-405 -3013 0
-406 -3014 0
-407 -3015 0
-408 -3016 0
-405 -3681 0
-406 -3682 0
-407 -3683 0
-408 -3684 0
-409 -521 0
-410 -522 0
-411 -523 0
-412 -524 0
-409 -673 0
-410 -674 0
-411 -675 0
-412 -676 0
-409 -2285 0
-410 -2286 0
-411 -2287 0
-412 -2288 0
-409 -3273 0
-410 -3274 0
-411 -3275 0
-412 -3276 0
-409 -3453 0
-410 -3454 0
-411 -3455 0
-412 -3456 0
-413 -517 0
-414 -518 0
-415 -519 0
-416 -520 0
-413 -677 0
-414 -678 0
-415 -679 0
-416 -680 0
-413 -2289 0
-414 -2290 0
-415 -2291 0
-416 -2292 0
-413 -3269 0
-414 -3270 0
-415 -3271 0
-416 -3272 0
-413 -3449 0
-414 -3450 0
-415 -3451 0
-416 -3452 0
-417 -561 0
-418 -562 0
-419 -563 0
-420 -564 0
-417 -957 0
-418 -958 0
-419 -959 0
-420 -960 0
-417 -2293 0
-418 -2294 0
-419 -2295 0
-420 -2296 0
-417 -3113 0
-418 -3114 0
-419 -3115 0
-420 -3116 0
-417 -3365 0
-418 -3366 0
-419 -3367 0
-420 -3368 0
-421 -725 0
-422 -726 0
-423 -727 0
-424 -728 0
-421 -753 0
-422 -754 0
-423 -755 0
-424 -756 0
-421 -2297 0
-422 -2298 0
-423 -2299 0
-424 -2300 0
-421 -2957 0
-422 -2958 0
-423 -2959 0
-424 -2960 0
-421 -3761 0
-422 -3762 0
-423 -3763 0
-424 -3764 0
-425 -741 0
-426 -742 0
-427 -743 0
-428 -744 0
-425 -869 0
-426 -870 0
-427 -871 0
-428 -872 0
-425 -2301 0
-426 -2302 0
-427 -2303 0
-428 -2304 0
-425 -2873 0
-426 -2874 0
-427 -2875 0
-428 -2876 0
-425 -3589 0
-426 -3590 0
-427 -3591 0
-428 -3592 0
-429 -837 0
-430 -838 0
-431 -839 0
-432 -840 0
-429 -861 0
-430 -862 0
-431 -863 0
-432 -864 0
-429 -2305 0
-430 -2306 0
-431 -2307 0
-432 -2308 0
-429 -3081 0
-430 -3082 0
-431 -3083 0
-432 -3084 0
-429 -3377 0
-430 -3378 0
-431 -3379 0
-432 -3380 0
-433 -785 0
-434 -786 0
-435 -787 0
-436 -788 0
-433 -909 0
-434 -910 0
-435 -911 0
-436 -912 0
-433 -2309 0
-434 -2310 0
-435 -2311 0
-436 -2312 0
-433 -3249 0
-434 -3250 0
-435 -3251 0
-436 -3252 0
-433 -3489 0
-434 -3490 0
-435 -3491 0
-436 -3492 0
-437 -809 0
-438 -810 0
-439 -811 0
-440 -812 0
-437 -853 0
-438 -854 0
-439 -855 0
-440 -856 0
-437 -2313 0
-438 -2314 0
-439 -2315 0
-440 -2316 0
-437 -3245 0
-438 -3246 0
-439 -3247 0
-440 -3248 0
-437 -3565 0
-438 -3566 0
-439 -3567 0
-440 -3568 0
-441 -601 0
-442 -602 0
-443 -603 0
-444 -604 0
-441 -677 0
-442 -678 0
-443 -679 0
-444 -680 0
-441 -2317 0
-442 -2318 0
-443 -2319 0
-444 -2320 0
-441 -3217 0
-442 -3218 0
-443 -3219 0
-444 -3220 0
-441 -3637 0
-442 -3638 0
-443 -3639 0
-444 -3640 0
-445 -609 0
-446 -610 0
-447 -611 0
-448 -612 0
-445 -757 0
-446 -758 0
-447 -759 0
-448 -760 0
-445 -2321 0
-446 -2322 0
-447 -2323 0
-448 -2324 0
-445 -2837 0
-446 -2838 0
-447 -2839 0
-448 -2840 0
-445 -3737 0
-446 -3738 0
-447 -3739 0
-448 -3740 0
-449 -617 0
-450 -618 0
-451 -619 0
-452 -620 0
-449 -749 0
-450 -750 0
-451 -751 0
-452 -752 0
-449 -2325 0
-450 -2326 0
-451 -2327 0
-452 -2328 0
-449 -2861 0
-450 -2862 0
-451 -2863 0
-452 -2864 0
-449 -3509 0
-450 -3510 0
-451 -3511 0
-452 -3512 0
-453 -593 0
-454 -594 0
-455 -595 0
-456 -596 0
-453 -665 0
-454 -666 0
-455 -667 0
-456 -668 0
-453 -2329 0
-454 -2330 0
-455 -2331 0
-456 -2332 0
-453 -3233 0
-454 -3234 0
-455 -3235 0
-456 -3236 0
-453 -3645 0
-454 -3646 0
-455 -3647 0
-456 -3648 0
-457 -761 0
-458 -762 0
-459 -763 0
-460 -764 0
-457 -801 0
-458 -802 0
-459 -803 0
-460 -804 0
-457 -2333 0
-458 -2334 0
-459 -2335 0
-460 -2336 0
-457 -3001 0
-458 -3002 0
-459 -3003 0
-460 -3004 0
-457 -3345 0
-458 -3346 0
-459 -3347 0
-460 -3348 0
-461 -497 0
-462 -498 0
-463 -499 0
-464 -500 0
-461 -825 0
-462 -826 0
-463 -827 0
-464 -828 0
-461 -2337 0
-462 -2338 0
-463 -2339 0
-464 -2340 0
-461 -2929 0
-462 -2930 0
-463 -2931 0
-464 -2932 0
-461 -3533 0
-462 -3534 0
-463 -3535 0
-464 -3536 0
-465 -721 0
-466 -722 0
-467 -723 0
-468 -724 0
-465 -881 0
-466 -882 0
-467 -883 0
-468 -884 0
-465 -2341 0
-466 -2342 0
-467 -2343 0
-468 -2344 0
-465 -2869 0
-466 -2870 0
-467 -2871 0
-468 -2872 0
-465 -3585 0
-466 -3586 0
-467 -3587 0
-468 -3588 0
-469 -577 0
-470 -578 0
-471 -579 0
-472 -580 0
-469 -805 0
-470 -806 0
-471 -807 0
-472 -808 0
-469 -2345 0
-470 -2346 0
-471 -2347 0
-472 -2348 0
-469 -2845 0
-470 -2846 0
-471 -2847 0
-472 -2848 0
-469 -3417 0
-470 -3418 0
-471 -3419 0
-472 -3420 0
-473 -685 0
-474 -686 0
-475 -687 0
-476 -688 0
-473 -877 0
-474 -878 0
-475 -879 0
-476 -880 0
-473 -2349 0
-474 -2350 0
-475 -2351 0
-476 -2352 0
-473 -3129 0
-474 -3130 0
-475 -3131 0
-476 -3132 0
-473 -3385 0
-474 -3386 0
-475 -3387 0
-476 -3388 0
-477 -605 0
-478 -606 0
-479 -607 0
-480 -608 0
-477 -897 0
-478 -898 0
-479 -899 0
-480 -900 0
-477 -2353 0
-478 -2354 0
-479 -2355 0
-480 -2356 0
-477 -3181 0
-478 -3182 0
-479 -3183 0
-480 -3184 0
-477 -3529 0
-478 -3530 0
-479 -3531 0
-480 -3532 0
-481 -2357 0
-482 -2358 0
-483 -2359 0
-484 -2360 0
-481 -2917 0
-482 -2918 0
-483 -2919 0
-484 -2920 0
-481 -3753 0
-482 -3754 0
-483 -3755 0
-484 -3756 0
-485 -2361 0
-486 -2362 0
-487 -2363 0
-488 -2364 0
-485 -3005 0
-486 -3006 0
-487 -3007 0
-488 -3008 0
-485 -3677 0
-486 -3678 0
-487 -3679 0
-488 -3680 0
-489 -2365 0
-490 -2366 0
-491 -2367 0
-492 -2368 0
-489 -3069 0
-490 -3070 0
-491 -3071 0
-492 -3072 0
-489 -3505 0
-490 -3506 0
-491 -3507 0
-492 -3508 0
-493 -2369 0
-494 -2370 0
-495 -2371 0
-496 -2372 0
-493 -2997 0
-494 -2998 0
-495 -2999 0
-496 -3000 0
-493 -3545 0
-494 -3546 0
-495 -3547 0
-496 -3548 0
-497 -2373 0
-498 -2374 0
-499 -2375 0
-500 -2376 0
-497 -3073 0
-498 -3074 0
-499 -3075 0
-500 -3076 0
-497 -3705 0
-498 -3706 0
-499 -3707 0
-500 -3708 0
-501 -2377 0
-502 -2378 0
-503 -2379 0
-504 -2380 0
-501 -3233 0
-502 -3234 0
-503 -3235 0
-504 -3236 0
-501 -3645 0
-502 -3646 0
-503 -3647 0
-504 -3648 0
-505 -2381 0
-506 -2382 0
-507 -2383 0
-508 -2384 0
-505 -2909 0
-506 -2910 0
-507 -2911 0
-508 -2912 0
-505 -3745 0
-506 -3746 0
-507 -3747 0
-508 -3748 0
-509 -2385 0
-510 -2386 0
-511 -2387 0
-512 -2388 0
-509 -3193 0
-510 -3194 0
-511 -3195 0
-512 -3196 0
-509 -3725 0
-510 -3726 0
-511 -3727 0
-512 -3728 0
-513 -2389 0
-514 -2390 0
-515 -2391 0
-516 -2392 0
-513 -3089 0
-514 -3090 0
-515 -3091 0
-516 -3092 0
-513 -3721 0
-514 -3722 0
-515 -3723 0
-516 -3724 0
-517 -2393 0
-518 -2394 0
-519 -2395 0
-520 -2396 0
-517 -3173 0
-518 -3174 0
-519 -3175 0
-520 -3176 0
-517 -3581 0
-518 -3582 0
-519 -3583 0
-520 -3584 0
-521 -2397 0
-522 -2398 0
-523 -2399 0
-524 -2400 0
-521 -3169 0
-522 -3170 0
-523 -3171 0
-524 -3172 0
-521 -3577 0
-522 -3578 0
-523 -3579 0
-524 -3580 0
-525 -2401 0
-526 -2402 0
-527 -2403 0
-528 -2404 0
-525 -3105 0
-526 -3106 0
-527 -3107 0
-528 -3108 0
-525 -3373 0
-526 -3374 0
-527 -3375 0
-528 -3376 0
-529 -2405 0
-530 -2406 0
-531 -2407 0
-532 -2408 0
-529 -2889 0
-530 -2890 0
-531 -2891 0
-532 -2892 0
-529 -3461 0
-530 -3462 0
-531 -3463 0
-532 -3464 0
-533 -2409 0
-534 -2410 0
-535 -2411 0
-536 -2412 0
-533 -3221 0
-534 -3222 0
-535 -3223 0
-536 -3224 0
-533 -3773 0
-534 -3774 0
-535 -3775 0
-536 -3776 0
-537 -2413 0
-538 -2414 0
-539 -2415 0
-540 -2416 0
-537 -3225 0
-538 -3226 0
-539 -3227 0
-540 -3228 0
-537 -3665 0
-538 -3666 0
-539 -3667 0
-540 -3668 0
-541 -2417 0
-542 -2418 0
-543 -2419 0
-544 -2420 0
-541 -3157 0
-542 -3158 0
-543 -3159 0
-544 -3160 0
-541 -3393 0
-542 -3394 0
-543 -3395 0
-544 -3396 0
-545 -2421 0
-546 -2422 0
-547 -2423 0
-548 -2424 0
-545 -3265 0
-546 -3266 0
-547 -3267 0
-548 -3268 0
-545 -3445 0
-546 -3446 0
-547 -3447 0
-548 -3448 0
-549 -2425 0
-550 -2426 0
-551 -2427 0
-552 -2428 0
-549 -3165 0
-550 -3166 0
-551 -3167 0
-552 -3168 0
-549 -3561 0
-550 -3562 0
-551 -3563 0
-552 -3564 0
-553 -2429 0
-554 -2430 0
-555 -2431 0
-556 -2432 0
-553 -3253 0
-554 -3254 0
-555 -3255 0
-556 -3256 0
-553 -3457 0
-554 -3458 0
-555 -3459 0
-556 -3460 0
-557 -2433 0
-558 -2434 0
-559 -2435 0
-560 -2436 0
-557 -3181 0
-558 -3182 0
-559 -3183 0
-560 -3184 0
-557 -3529 0
-558 -3530 0
-559 -3531 0
-560 -3532 0
-561 -2437 0
-562 -2438 0
-563 -2439 0
-564 -2440 0
-561 -3177 0
-562 -3178 0
-563 -3179 0
-564 -3180 0
-561 -3781 0
-562 -3782 0
-563 -3783 0
-564 -3784 0
-565 -2441 0
-566 -2442 0
-567 -2443 0
-568 -2444 0
-565 -2857 0
-566 -2858 0
-567 -2859 0
-568 -2860 0
-565 -3513 0
-566 -3514 0
-567 -3515 0
-568 -3516 0
-569 -2445 0
-570 -2446 0
-571 -2447 0
-572 -2448 0
-569 -2953 0
-570 -2954 0
-571 -2955 0
-572 -2956 0
-569 -3765 0
-570 -3766 0
-571 -3767 0
-572 -3768 0
-573 -2449 0
-574 -2450 0
-575 -2451 0
-576 -2452 0
-573 -3061 0
-574 -3062 0
-575 -3063 0
-576 -3064 0
-573 -3473 0
-574 -3474 0
-575 -3475 0
-576 -3476 0
-577 -2453 0
-578 -2454 0
-579 -2455 0
-580 -2456 0
-577 -3037 0
-578 -3038 0
-579 -3039 0
-580 -3040 0
-577 -3713 0
-578 -3714 0
-579 -3715 0
-580 -3716 0
-581 -2457 0
-582 -2458 0
-583 -2459 0
-584 -2460 0
-581 -3313 0
-582 -3314 0
-583 -3315 0
-584 -3316 0
-581 -3369 0
-582 -3370 0
-583 -3371 0
-584 -3372 0
-585 -2461 0
-586 -2462 0
-587 -2463 0
-588 -2464 0
-585 -3129 0
-586 -3130 0
-587 -3131 0
-588 -3132 0
-585 -3385 0
-586 -3386 0
-587 -3387 0
-588 -3388 0
-589 -2465 0
-590 -2466 0
-591 -2467 0
-592 -2468 0
-589 -3125 0
-590 -3126 0
-591 -3127 0
-592 -3128 0
-589 -3381 0
-590 -3382 0
-591 -3383 0
-592 -3384 0
-593 -2469 0
-594 -2470 0
-595 -2471 0
-596 -2472 0
-593 -2937 0
-594 -2938 0
-595 -2939 0
-596 -2940 0
-593 -3493 0
-594 -3494 0
-595 -3495 0
-596 -3496 0
-597 -2473 0
-598 -2474 0
-599 -2475 0
-600 -2476 0
-597 -3121 0
-598 -3122 0
-599 -3123 0
-600 -3124 0
-597 -3669 0
-598 -3670 0
-599 -3671 0
-600 -3672 0
-601 -2477 0
-602 -2478 0
-603 -2479 0
-604 -2480 0
-601 -2913 0
-602 -2914 0
-603 -2915 0
-604 -2916 0
-601 -3749 0
-602 -3750 0
-603 -3751 0
-604 -3752 0
-605 -2481 0
-606 -2482 0
-607 -2483 0
-608 -2484 0
-605 -3109 0
-606 -3110 0
-607 -3111 0
-608 -3112 0
-605 -3717 0
-606 -3718 0
-607 -3719 0
-608 -3720 0
-609 -2485 0
-610 -2486 0
-611 -2487 0
-612 -2488 0
-609 -3137 0
-610 -3138 0
-611 -3139 0
-612 -3140 0
-609 -3777 0
-610 -3778 0
-611 -3779 0
-612 -3780 0
-613 -2489 0
-614 -2490 0
-615 -2491 0
-616 -2492 0
-613 -2877 0
-614 -2878 0
-615 -2879 0
-616 -2880 0
-613 -3593 0
-614 -3594 0
-615 -3595 0
-616 -3596 0
-617 -2493 0
-618 -2494 0
-619 -2495 0
-620 -2496 0
-617 -2873 0
-618 -2874 0
-619 -2875 0
-620 -2876 0
-617 -3589 0
-618 -3590 0
-619 -3591 0
-620 -3592 0
-621 -2497 0
-622 -2498 0
-623 -2499 0
-624 -2500 0
-621 -3053 0
-622 -3054 0
-623 -3055 0
-624 -3056 0
-621 -3437 0
-622 -3438 0
-623 -3439 0
-624 -3440 0
-625 -2501 0
-626 -2502 0
-627 -2503 0
-628 -2504 0
-625 -3277 0
-626 -3278 0
-627 -3279 0
-628 -3280 0
-625 -3497 0
-626 -3498 0
-627 -3499 0
-628 -3500 0
-629 -2505 0
-630 -2506 0
-631 -2507 0
-632 -2508 0
-629 -2853 0
-630 -2854 0
-631 -2855 0
-632 -2856 0
-629 -3501 0
-630 -3502 0
-631 -3503 0
-632 -3504 0
-633 -2509 0
-634 -2510 0
-635 -2511 0
-636 -2512 0
-633 -3001 0
-634 -3002 0
-635 -3003 0
-636 -3004 0
-633 -3345 0
-634 -3346 0
-635 -3347 0
-636 -3348 0
-637 -2513 0
-638 -2514 0
-639 -2515 0
-640 -2516 0
-637 -3009 0
-638 -3010 0
-639 -3011 0
-640 -3012 0
-637 -3421 0
-638 -3422 0
-639 -3423 0
-640 -3424 0
-641 -2517 0
-642 -2518 0
-643 -2519 0
-644 -2520 0
-641 -3213 0
-642 -3214 0
-643 -3215 0
-644 -3216 0
-641 -3633 0
-642 -3634 0
-643 -3635 0
-644 -3636 0
-645 -2521 0
-646 -2522 0
-647 -2523 0
-648 -2524 0
-645 -3149 0
-646 -3150 0
-647 -3151 0
-648 -3152 0
-645 -3517 0
-646 -3518 0
-647 -3519 0
-648 -3520 0
-649 -2525 0
-650 -2526 0
-651 -2527 0
-652 -2528 0
-649 -3145 0
-650 -3146 0
-651 -3147 0
-652 -3148 0
-649 -3785 0
-650 -3786 0
-651 -3787 0
-652 -3788 0
-653 -2529 0
-654 -2530 0
-655 -2531 0
-656 -2532 0
-653 -3045 0
-654 -3046 0
-655 -3047 0
-656 -3048 0
-653 -3597 0
-654 -3598 0
-655 -3599 0
-656 -3600 0
-657 -2533 0
-658 -2534 0
-659 -2535 0
-660 -2536 0
-657 -3245 0
-658 -3246 0
-659 -3247 0
-660 -3248 0
-657 -3565 0
-658 -3566 0
-659 -3567 0
-660 -3568 0
-661 -2537 0
-662 -2538 0
-663 -2539 0
-664 -2540 0
-661 -2965 0
-662 -2966 0
-663 -2967 0
-664 -2968 0
-661 -3769 0
-662 -3770 0
-663 -3771 0
-664 -3772 0
-665 -2541 0
-666 -2542 0
-667 -2543 0
-668 -2544 0
-665 -3081 0
-666 -3082 0
-667 -3083 0
-668 -3084 0
-665 -3377 0
-666 -3378 0
-667 -3379 0
-668 -3380 0
-669 -2545 0
-670 -2546 0
-671 -2547 0
-672 -2548 0
-669 -3273 0
-670 -3274 0
-671 -3275 0
-672 -3276 0
-669 -3453 0
-670 -3454 0
-671 -3455 0
-672 -3456 0
-673 -2549 0
-674 -2550 0
-675 -2551 0
-676 -2552 0
-673 -3229 0
-674 -3230 0
-675 -3231 0
-676 -3232 0
-673 -3321 0
-674 -3322 0
-675 -3323 0
-676 -3324 0
-677 -2553 0
-678 -2554 0
-679 -2555 0
-680 -2556 0
-677 -2933 0
-678 -2934 0
-679 -2935 0
-680 -2936 0
-677 -3469 0
-678 -3470 0
-679 -3471 0
-680 -3472 0
-681 -2557 0
-682 -2558 0
-683 -2559 0
-684 -2560 0
-681 -3033 0
-682 -3034 0
-683 -3035 0
-684 -3036 0
-681 -3357 0
-682 -3358 0
-683 -3359 0
-684 -3360 0
-685 -2561 0
-686 -2562 0
-687 -2563 0
-688 -2564 0
-685 -3285 0
-686 -3286 0
-687 -3287 0
-688 -3288 0
-685 -3641 0
-686 -3642 0
-687 -3643 0
-688 -3644 0
-689 -2565 0
-690 -2566 0
-691 -2567 0
-692 -2568 0
-689 -2993 0
-690 -2994 0
-691 -2995 0
-692 -2996 0
-689 -3349 0
-690 -3350 0
-691 -3351 0
-692 -3352 0
-693 -2569 0
-694 -2570 0
-695 -2571 0
-696 -2572 0
-693 -2977 0
-694 -2978 0
-695 -2979 0
-696 -2980 0
-693 -3541 0
-694 -3542 0
-695 -3543 0
-696 -3544 0
-697 -2573 0
-698 -2574 0
-699 -2575 0
-700 -2576 0
-697 -3049 0
-698 -3050 0
-699 -3051 0
-700 -3052 0
-697 -3341 0
-698 -3342 0
-699 -3343 0
-700 -3344 0
-701 -2577 0
-702 -2578 0
-703 -2579 0
-704 -2580 0
-701 -3301 0
-702 -3302 0
-703 -3303 0
-704 -3304 0
-701 -3337 0
-702 -3338 0
-703 -3339 0
-704 -3340 0
-705 -2581 0
-706 -2582 0
-707 -2583 0
-708 -2584 0
-705 -3117 0
-706 -3118 0
-707 -3119 0
-708 -3120 0
-705 -3673 0
-706 -3674 0
-707 -3675 0
-708 -3676 0
-709 -2585 0
-710 -2586 0
-711 -2587 0
-712 -2588 0
-709 -3269 0
-710 -3270 0
-711 -3271 0
-712 -3272 0
-709 -3449 0
-710 -3450 0
-711 -3451 0
-712 -3452 0
-713 -2589 0
-714 -2590 0
-715 -2591 0
-716 -2592 0
-713 -3217 0
-714 -3218 0
-715 -3219 0
-716 -3220 0
-713 -3637 0
-714 -3638 0
-715 -3639 0
-716 -3640 0
-717 -2593 0
-718 -2594 0
-719 -2595 0
-720 -2596 0
-717 -2985 0
-718 -2986 0
-719 -2987 0
-720 -2988 0
-717 -3605 0
-718 -3606 0
-719 -3607 0
-720 -3608 0
-721 -2597 0
-722 -2598 0
-723 -2599 0
-724 -2600 0
-721 -2901 0
-722 -2902 0
-723 -2903 0
-724 -2904 0
-721 -3733 0
-722 -3734 0
-723 -3735 0
-724 -3736 0
-725 -2601 0
-726 -2602 0
-727 -2603 0
-728 -2604 0
-725 -3133 0
-726 -3134 0
-727 -3135 0
-728 -3136 0
-725 -3553 0
-726 -3554 0
-727 -3555 0
-728 -3556 0
-729 -2605 0
-730 -2606 0
-731 -2607 0
-732 -2608 0
-729 -3041 0
-730 -3042 0
-731 -3043 0
-732 -3044 0
-729 -3601 0
-730 -3602 0
-731 -3603 0
-732 -3604 0
-733 -2609 0
-734 -2610 0
-735 -2611 0
-736 -2612 0
-733 -3249 0
-734 -3250 0
-735 -3251 0
-736 -3252 0
-733 -3489 0
-734 -3490 0
-735 -3491 0
-736 -3492 0
-737 -2613 0
-738 -2614 0
-739 -2615 0
-740 -2616 0
-737 -3113 0
-738 -3114 0
-739 -3115 0
-740 -3116 0
-737 -3365 0
-738 -3366 0
-739 -3367 0
-740 -3368 0
-741 -2617 0
-742 -2618 0
-743 -2619 0
-744 -2620 0
-741 -3065 0
-742 -3066 0
-743 -3067 0
-744 -3068 0
-741 -3661 0
-742 -3662 0
-743 -3663 0
-744 -3664 0
-745 -2621 0
-746 -2622 0
-747 -2623 0
-748 -2624 0
-745 -3025 0
-746 -3026 0
-747 -3027 0
-748 -3028 0
-745 -3657 0
-746 -3658 0
-747 -3659 0
-748 -3660 0
-749 -2625 0
-750 -2626 0
-751 -2627 0
-752 -2628 0
-749 -3309 0
-750 -3310 0
-751 -3311 0
-752 -3312 0
-749 -3477 0
-750 -3478 0
-751 -3479 0
-752 -3480 0
-753 -2629 0
-754 -2630 0
-755 -2631 0
-756 -2632 0
-753 -3185 0
-754 -3186 0
-755 -3187 0
-756 -3188 0
-753 -3481 0
-754 -3482 0
-755 -3483 0
-756 -3484 0
-757 -2633 0
-758 -2634 0
-759 -2635 0
-760 -2636 0
-757 -3293 0
-758 -3294 0
-759 -3295 0
-760 -3296 0
-757 -3485 0
-758 -3486 0
-759 -3487 0
-760 -3488 0
-761 -2637 0
-762 -2638 0
-763 -2639 0
-764 -2640 0
-761 -2929 0
-762 -2930 0
-763 -2931 0
-764 -2932 0
-761 -3533 0
-762 -3534 0
-763 -3535 0
-764 -3536 0
-765 -2641 0
-766 -2642 0
-767 -2643 0
-768 -2644 0
-765 -2925 0
-766 -2926 0
-767 -2927 0
-768 -2928 0
-765 -3537 0
-766 -3538 0
-767 -3539 0
-768 -3540 0
-769 -2645 0
-770 -2646 0
-771 -2647 0
-772 -2648 0
-769 -3209 0
-770 -3210 0
-771 -3211 0
-772 -3212 0
-769 -3521 0
-770 -3522 0
-771 -3523 0
-772 -3524 0
-773 -2649 0
-774 -2650 0
-775 -2651 0
-776 -2652 0
-773 -3141 0
-774 -3142 0
-775 -3143 0
-776 -3144 0
-773 -3525 0
-774 -3526 0
-775 -3527 0
-776 -3528 0
-777 -2653 0
-778 -2654 0
-779 -2655 0
-780 -2656 0
-777 -3021 0
-778 -3022 0
-779 -3023 0
-780 -3024 0
-777 -3685 0
-778 -3686 0
-779 -3687 0
-780 -3688 0
-781 -2657 0
-782 -2658 0
-783 -2659 0
-784 -2660 0
-781 -3017 0
-782 -3018 0
-783 -3019 0
-784 -3020 0
-781 -3557 0
-782 -3558 0
-783 -3559 0
-784 -3560 0
-785 -2661 0
-786 -2662 0
-787 -2663 0
-788 -2664 0
-785 -2941 0
-786 -2942 0
-787 -2943 0
-788 -2944 0
-785 -3757 0
-786 -3758 0
-787 -3759 0
-788 -3760 0
-789 -2665 0
-790 -2666 0
-791 -2667 0
-792 -2668 0
-789 -2841 0
-790 -2842 0
-791 -2843 0
-792 -2844 0
-789 -3573 0
-790 -3574 0
-791 -3575 0
-792 -3576 0
-793 -2669 0
-794 -2670 0
-795 -2671 0
-796 -2672 0
-793 -2989 0
-794 -2990 0
-795 -2991 0
-796 -2992 0
-793 -3441 0
-794 -3442 0
-795 -3443 0
-796 -3444 0
-797 -2673 0
-798 -2674 0
-799 -2675 0
-800 -2676 0
-797 -3257 0
-798 -3258 0
-799 -3259 0
-800 -3260 0
-797 -3617 0
-798 -3618 0
-799 -3619 0
-800 -3620 0
-801 -2677 0
-802 -2678 0
-803 -2679 0
-804 -2680 0
-801 -3281 0
-802 -3282 0
-803 -3283 0
-804 -3284 0
-801 -3613 0
-802 -3614 0
-803 -3615 0
-804 -3616 0
-805 -2681 0
-806 -2682 0
-807 -2683 0
-808 -2684 0
-805 -3013 0
-806 -3014 0
-807 -3015 0
-808 -3016 0
-805 -3681 0
-806 -3682 0
-807 -3683 0
-808 -3684 0
-809 -2685 0
-810 -2686 0
-811 -2687 0
-812 -2688 0
-809 -3205 0
-810 -3206 0
-811 -3207 0
-812 -3208 0
-809 -3621 0
-810 -3622 0
-811 -3623 0
-812 -3624 0
-813 -2689 0
-814 -2690 0
-815 -2691 0
-816 -2692 0
-813 -2969 0
-814 -2970 0
-815 -2971 0
-816 -2972 0
-813 -3413 0
-814 -3414 0
-815 -3415 0
-816 -3416 0
-817 -2693 0
-818 -2694 0
-819 -2695 0
-820 -2696 0
-817 -2973 0
-818 -2974 0
-819 -2975 0
-820 -2976 0
-817 -3709 0
-818 -3710 0
-819 -3711 0
-820 -3712 0
-821 -2697 0
-822 -2698 0
-823 -2699 0
-824 -2700 0
-821 -2837 0
-822 -2838 0
-823 -2839 0
-824 -2840 0
-821 -3737 0
-822 -3738 0
-823 -3739 0
-824 -3740 0
-825 -2701 0
-826 -2702 0
-827 -2703 0
-828 -2704 0
-825 -2957 0
-826 -2958 0
-827 -2959 0
-828 -2960 0
-825 -3761 0
-826 -3762 0
-827 -3763 0
-828 -3764 0
-829 -2705 0
-830 -2706 0
-831 -2707 0
-832 -2708 0
-829 -2961 0
-830 -2962 0
-831 -2963 0
-832 -2964 0
-829 -3653 0
-830 -3654 0
-831 -3655 0
-832 -3656 0
-833 -2709 0
-834 -2710 0
-835 -2711 0
-836 -2712 0
-833 -3241 0
-834 -3242 0
-835 -3243 0
-836 -3244 0
-833 -3625 0
-834 -3626 0
-835 -3627 0
-836 -3628 0
-837 -2713 0
-838 -2714 0
-839 -2715 0
-840 -2716 0
-837 -3201 0
-838 -3202 0
-839 -3203 0
-840 -3204 0
-837 -3629 0
-838 -3630 0
-839 -3631 0
-840 -3632 0
-841 -2717 0
-842 -2718 0
-843 -2719 0
-844 -2720 0
-841 -3189 0
-842 -3190 0
-843 -3191 0
-844 -3192 0
-841 -3729 0
-842 -3730 0
-843 -3731 0
-844 -3732 0
-845 -2721 0
-846 -2722 0
-847 -2723 0
-848 -2724 0
-845 -2865 0
-846 -2866 0
-847 -2867 0
-848 -2868 0
-845 -3409 0
-846 -3410 0
-847 -3411 0
-848 -3412 0
-849 -2725 0
-850 -2726 0
-851 -2727 0
-852 -2728 0
-849 -2905 0
-850 -2906 0
-851 -2907 0
-852 -2908 0
-849 -3401 0
-850 -3402 0
-851 -3403 0
-852 -3404 0
-853 -2729 0
-854 -2730 0
-855 -2731 0
-856 -2732 0
-853 -2945 0
-854 -2946 0
-855 -2947 0
-856 -2948 0
-853 -3333 0
-854 -3334 0
-855 -3335 0
-856 -3336 0
-857 -2733 0
-858 -2734 0
-859 -2735 0
-860 -2736 0
-857 -2849 0
-858 -2850 0
-859 -2851 0
-860 -2852 0
-857 -3361 0
-858 -3362 0
-859 -3363 0
-860 -3364 0
-861 -2737 0
-862 -2738 0
-863 -2739 0
-864 -2740 0
-861 -2845 0
-862 -2846 0
-863 -2847 0
-864 -2848 0
-861 -3417 0
-862 -3418 0
-863 -3419 0
-864 -3420 0
-865 -2741 0
-866 -2742 0
-867 -2743 0
-868 -2744 0
-865 -2885 0
-866 -2886 0
-867 -2887 0
-868 -2888 0
-865 -3429 0
-866 -3430 0
-867 -3431 0
-868 -3432 0
-869 -2745 0
-870 -2746 0
-871 -2747 0
-872 -2748 0
-869 -3237 0
-870 -3238 0
-871 -3239 0
-872 -3240 0
-869 -3789 0
-870 -3790 0
-871 -3791 0
-872 -3792 0
-873 -2749 0
-874 -2750 0
-875 -2751 0
-876 -2752 0
-873 -3305 0
-874 -3306 0
-875 -3307 0
-876 -3308 0
-873 -3389 0
-874 -3390 0
-875 -3391 0
-876 -3392 0
-877 -2753 0
-878 -2754 0
-879 -2755 0
-880 -2756 0
-877 -2921 0
-878 -2922 0
-879 -2923 0
-880 -2924 0
-877 -3741 0
-878 -3742 0
-879 -3743 0
-880 -3744 0
-881 -2757 0
-882 -2758 0
-883 -2759 0
-884 -2760 0
-881 -2893 0
-882 -2894 0
-883 -2895 0
-884 -2896 0
-881 -3465 0
-882 -3466 0
-883 -3467 0
-884 -3468 0
-885 -2761 0
-886 -2762 0
-887 -2763 0
-888 -2764 0
-885 -3197 0
-886 -3198 0
-887 -3199 0
-888 -3200 0
-885 -3405 0
-886 -3406 0
-887 -3407 0
-888 -3408 0
-889 -2765 0
-890 -2766 0
-891 -2767 0
-892 -2768 0
-889 -3161 0
-890 -3162 0
-891 -3163 0
-892 -3164 0
-889 -3793 0
-890 -3794 0
-891 -3795 0
-892 -3796 0
-893 -2769 0
-894 -2770 0
-895 -2771 0
-896 -2772 0
-893 -2869 0
-894 -2870 0
-895 -2871 0
-896 -2872 0
-893 -3585 0
-894 -3586 0
-895 -3587 0
-896 -3588 0
-897 -2773 0
-898 -2774 0
-899 -2775 0
-900 -2776 0
-897 -2861 0
-898 -2862 0
-899 -2863 0
-900 -2864 0
-897 -3509 0
-898 -3510 0
-899 -3511 0
-900 -3512 0
-901 -2777 0
-902 -2778 0
-903 -2779 0
-904 -2780 0
-901 -3289 0
-902 -3290 0
-903 -3291 0
-904 -3292 0
-901 -3329 0
-902 -3330 0
-903 -3331 0
-904 -3332 0
-905 -2781 0
-906 -2782 0
-907 -2783 0
-908 -2784 0
-905 -3057 0
-906 -3058 0
-907 -3059 0
-908 -3060 0
-905 -3317 0
-906 -3318 0
-907 -3319 0
-908 -3320 0
-909 -2785 0
-910 -2786 0
-911 -2787 0
-912 -2788 0
-909 -3077 0
-910 -3078 0
-911 -3079 0
-912 -3080 0
-909 -3689 0
-910 -3690 0
-911 -3691 0
-912 -3692 0
-913 -2789 0
-914 -2790 0
-915 -2791 0
-916 -2792 0
-913 -3097 0
-914 -3098 0
-915 -3099 0
-916 -3100 0
-913 -3693 0
-914 -3694 0
-915 -3695 0
-916 -3696 0
-917 -2793 0
-918 -2794 0
-919 -2795 0
-920 -2796 0
-917 -3101 0
-918 -3102 0
-919 -3103 0
-920 -3104 0
-917 -3697 0
-918 -3698 0
-919 -3699 0
-920 -3700 0
-921 -2797 0
-922 -2798 0
-923 -2799 0
-924 -2800 0
-921 -3297 0
-922 -3298 0
-923 -3299 0
-924 -3300 0
-921 -3701 0
-922 -3702 0
-923 -3703 0
-924 -3704 0
-925 -2801 0
-926 -2802 0
-927 -2803 0
-928 -2804 0
-925 -2897 0
-926 -2898 0
-927 -2899 0
-928 -2900 0
-925 -3325 0
-926 -3326 0
-927 -3327 0
-928 -3328 0
-929 -2805 0
-930 -2806 0
-931 -2807 0
-932 -2808 0
-929 -3085 0
-930 -3086 0
-931 -3087 0
-932 -3088 0
-929 -3425 0
-930 -3426 0
-931 -3427 0
-932 -3428 0
-933 -2809 0
-934 -2810 0
-935 -2811 0
-936 -2812 0
-933 -3153 0
-934 -3154 0
-935 -3155 0
-936 -3156 0
-933 -3397 0
-934 -3398 0
-935 -3399 0
-936 -3400 0
-937 -2813 0
-938 -2814 0
-939 -2815 0
-940 -2816 0
-937 -3093 0
-938 -3094 0
-939 -3095 0
-940 -3096 0
-937 -3649 0
-938 -3650 0
-939 -3651 0
-940 -3652 0
-941 -2817 0
-942 -2818 0
-943 -2819 0
-944 -2820 0
-941 -2981 0
-942 -2982 0
-943 -2983 0
-944 -2984 0
-941 -3609 0
-942 -3610 0
-943 -3611 0
-944 -3612 0
-945 -2821 0
-946 -2822 0
-947 -2823 0
-948 -2824 0
-945 -3261 0
-946 -3262 0
-947 -3263 0
-948 -3264 0
-945 -3433 0
-946 -3434 0
-947 -3435 0
-948 -3436 0
-949 -2825 0
-950 -2826 0
-951 -2827 0
-952 -2828 0
-949 -3029 0
-950 -3030 0
-951 -3031 0
-952 -3032 0
-949 -3353 0
-950 -3354 0
-951 -3355 0
-952 -3356 0
-953 -2829 0
-954 -2830 0
-955 -2831 0
-956 -2832 0
-953 -2881 0
-954 -2882 0
-955 -2883 0
-956 -2884 0
-953 -3569 0
-954 -3570 0
-955 -3571 0
-956 -3572 0
-957 -2833 0
-958 -2834 0
-959 -2835 0
-960 -2836 0
-957 -2949 0
-958 -2950 0
-959 -2951 0
-960 -2952 0
-957 -3549 0
-958 -3550 0
-959 -3551 0
-960 -3552 0
-961 -1069 0
-962 -1070 0
-963 -1071 0
-964 -1072 0
-961 -1157 0
-962 -1158 0
-963 -1159 0
-964 -1160 0
-961 -1201 0
-962 -1202 0
-963 -1203 0
-964 -1204 0
-961 -1309 0
-962 -1310 0
-963 -1311 0
-964 -1312 0
-961 -1853 0
-962 -1854 0
-963 -1855 0
-964 -1856 0
-961 -2385 0
-962 -2386 0
-963 -2387 0
-964 -2388 0
-961 -3021 0
-962 -3022 0
-963 -3023 0
-964 -3024 0
-961 -3809 0
-962 -3810 0
-963 -3811 0
-964 -3812 0
-965 -1125 0
-966 -1126 0
-967 -1127 0
-968 -1128 0
-965 -1221 0
-966 -1222 0
-967 -1223 0
-968 -1224 0
-965 -1385 0
-966 -1386 0
-967 -1387 0
-968 -1388 0
-965 -1725 0
-966 -1726 0
-967 -1727 0
-968 -1728 0
-965 -2373 0
-966 -2374 0
-967 -2375 0
-968 -2376 0
-965 -2929 0
-966 -2930 0
-967 -2931 0
-968 -2932 0
-965 -3817 0
-966 -3818 0
-967 -3819 0
-968 -3820 0
-969 -985 0
-970 -986 0
-971 -987 0
-972 -988 0
-969 -1245 0
-970 -1246 0
-971 -1247 0
-972 -1248 0
-969 -1325 0
-970 -1326 0
-971 -1327 0
-972 -1328 0
-969 -1389 0
-970 -1390 0
-971 -1391 0
-972 -1392 0
-969 -1621 0
-970 -1622 0
-971 -1623 0
-972 -1624 0
-969 -2401 0
-970 -2402 0
-971 -2403 0
-972 -2404 0
-969 -3253 0
-970 -3254 0
-971 -3255 0
-972 -3256 0
-969 -3829 0
-970 -3830 0
-971 -3831 0
-972 -3832 0
-973 -981 0
-974 -982 0
-975 -983 0
-976 -984 0
-973 -1197 0
-974 -1198 0
-975 -1199 0
-976 -1200 0
-973 -1249 0
-974 -1250 0
-975 -1251 0
-976 -1252 0
-973 -1393 0
-974 -1394 0
-975 -1395 0
-976 -1396 0
-973 -1865 0
-974 -1866 0
-975 -1867 0
-976 -1868 0
-973 -2457 0
-974 -2458 0
-975 -2459 0
-976 -2460 0
-973 -2921 0
-974 -2922 0
-975 -2923 0
-976 -2924 0
-973 -3821 0
-974 -3822 0
-975 -3823 0
-976 -3824 0
-977 -1181 0
-978 -1182 0
-979 -1183 0
-980 -1184 0
-977 -1281 0
-978 -1282 0
-979 -1283 0
-980 -1284 0
-977 -1373 0
-978 -1374 0
-979 -1375 0
-980 -1376 0
-977 -1409 0
-978 -1410 0
-979 -1411 0
-980 -1412 0
-977 -1689 0
-978 -1690 0
-979 -1691 0
-980 -1692 0
-977 -2361 0
-978 -2362 0
-979 -2363 0
-980 -2364 0
-977 -3257 0
-978 -3258 0
-979 -3259 0
-980 -3260 0
-977 -3797 0
-978 -3798 0
-979 -3799 0
-980 -3800 0
-981 -1369 0
-982 -1370 0
-983 -1371 0
-984 -1372 0
-981 -1393 0
-982 -1394 0
-983 -1395 0
-984 -1396 0
-981 -1405 0
-982 -1406 0
-983 -1407 0
-984 -1408 0
-981 -1541 0
-982 -1542 0
-983 -1543 0
-984 -1544 0
-981 -2421 0
-982 -2422 0
-983 -2423 0
-984 -2424 0
-981 -3089 0
-982 -3090 0
-983 -3091 0
-984 -3092 0
-981 -3821 0
-982 -3822 0
-983 -3823 0
-984 -3824 0
-985 -1117 0
-986 -1118 0
-987 -1119 0
-988 -1120 0
-985 -1365 0
-986 -1366 0
-987 -1367 0
-988 -1368 0
-985 -1389 0
-986 -1390 0
-987 -1391 0
-988 -1392 0
-985 -1869 0
-986 -1870 0
-987 -1871 0
-988 -1872 0
-985 -2425 0
-986 -2426 0
-987 -2427 0
-988 -2428 0
-985 -3013 0
-986 -3014 0
-987 -3015 0
-988 -3016 0
-985 -3829 0
-986 -3830 0
-987 -3831 0
-988 -3832 0
-989 -1233 0
-990 -1234 0
-991 -1235 0
-992 -1236 0
-989 -1349 0
-990 -1350 0
-991 -1351 0
-992 -1352 0
-989 -1353 0
-990 -1354 0
-991 -1355 0
-992 -1356 0
-989 -1357 0
-990 -1358 0
-991 -1359 0
-992 -1360 0
-989 -1705 0
-990 -1706 0
-991 -1707 0
-992 -1708 0
-989 -2357 0
-990 -2358 0
-991 -2359 0
-992 -2360 0
-989 -3093 0
-990 -3094 0
-991 -3095 0
-992 -3096 0
-989 -3801 0
-990 -3802 0
-991 -3803 0
-992 -3804 0
-993 -1045 0
-994 -1046 0
-995 -1047 0
-996 -1048 0
-993 -1177 0
-994 -1178 0
-995 -1179 0
-996 -1180 0
-993 -1269 0
-994 -1270 0
-995 -1271 0
-996 -1272 0
-993 -1397 0
-994 -1398 0
-995 -1399 0
-996 -1400 0
-993 -1497 0
-994 -1498 0
-995 -1499 0
-996 -1500 0
-993 -2469 0
-994 -2470 0
-995 -2471 0
-996 -2472 0
-993 -3233 0
-994 -3234 0
-995 -3235 0
-996 -3236 0
-993 -3813 0
-994 -3814 0
-995 -3815 0
-996 -3816 0
-997 -1049 0
-998 -1050 0
-999 -1051 0
-1000 -1052 0
-997 -1101 0
-998 -1102 0
-999 -1103 0
-1000 -1104 0
-997 -1213 0
-998 -1214 0
-999 -1215 0
-1000 -1216 0
-997 -1329 0
-998 -1330 0
-999 -1331 0
-1000 -1332 0
-997 -1641 0
-998 -1642 0
-999 -1643 0
-1000 -1644 0
-997 -2501 0
-998 -2502 0
-999 -2503 0
-1000 -2504 0
-997 -3121 0
-998 -3122 0
-999 -3123 0
-1000 -3124 0
-997 -3841 0
-998 -3842 0
-999 -3843 0
-1000 -3844 0
-1001 -1053 0
-1002 -1054 0
-1003 -1055 0
-1004 -1056 0
-1001 -1085 0
-1002 -1086 0
-1003 -1087 0
-1004 -1088 0
-1001 -1261 0
-1002 -1262 0
-1003 -1263 0
-1004 -1264 0
-1001 -1381 0
-1002 -1382 0
-1003 -1383 0
-1004 -1384 0
-1001 -2505 0
-1002 -2506 0
-1003 -2507 0
-1004 -2508 0
-1001 -3117 0
-1002 -3118 0
-1003 -3119 0
-1004 -3120 0
-1001 -3837 0
-1002 -3838 0
-1003 -3839 0
-1004 -3840 0
-1005 -1057 0
-1006 -1058 0
-1007 -1059 0
-1008 -1060 0
-1005 -1257 0
-1006 -1258 0
-1007 -1259 0
-1008 -1260 0
-1005 -1301 0
-1006 -1302 0
-1007 -1303 0
-1008 -1304 0
-1005 -1421 0
-1006 -1422 0
-1007 -1423 0
-1008 -1424 0
-1005 -1505 0
-1006 -1506 0
-1007 -1507 0
-1008 -1508 0
-1005 -2365 0
-1006 -2366 0
-1007 -2367 0
-1008 -2368 0
-1005 -3033 0
-1006 -3034 0
-1007 -3035 0
-1008 -3036 0
-1005 -3813 0
-1006 -3814 0
-1007 -3815 0
-1008 -3816 0
-1009 -1033 0
-1010 -1034 0
-1011 -1035 0
-1012 -1036 0
-1009 -1057 0
-1010 -1058 0
-1011 -1059 0
-1012 -1060 0
-1009 -1301 0
-1010 -1302 0
-1011 -1303 0
-1012 -1304 0
-1009 -1317 0
-1010 -1318 0
-1011 -1319 0
-1012 -1320 0
-1009 -1861 0
-1010 -1862 0
-1011 -1863 0
-1012 -1864 0
-1009 -2625 0
-1010 -2626 0
-1011 -2627 0
-1012 -2628 0
-1009 -2861 0
-1010 -2862 0
-1011 -2863 0
-1012 -2864 0
-1009 -3805 0
-1010 -3806 0
-1011 -3807 0
-1012 -3808 0
-1013 -1037 0
-1014 -1038 0
-1015 -1039 0
-1016 -1040 0
-1013 -1053 0
-1014 -1054 0
-1015 -1055 0
-1016 -1056 0
-1013 -1149 0
-1014 -1150 0
-1015 -1151 0
-1016 -1152 0
-1013 -1205 0
-1014 -1206 0
-1015 -1207 0
-1016 -1208 0
-1013 -1825 0
-1014 -1826 0
-1015 -1827 0
-1016 -1828 0
-1013 -2629 0
-1014 -2630 0
-1015 -2631 0
-1016 -2632 0
-1013 -2957 0
-1014 -2958 0
-1015 -2959 0
-1016 -2960 0
-1013 -3837 0
-1014 -3838 0
-1015 -3839 0
-1016 -3840 0
-1017 -1041 0
-1018 -1042 0
-1019 -1043 0
-1020 -1044 0
-1017 -1049 0
-1018 -1050 0
-1019 -1051 0
-1020 -1052 0
-1017 -1133 0
-1018 -1134 0
-1019 -1135 0
-1020 -1136 0
-1017 -1185 0
-1018 -1186 0
-1019 -1187 0
-1020 -1188 0
-1017 -1569 0
-1018 -1570 0
-1019 -1571 0
-1020 -1572 0
-1017 -2633 0
-1018 -2634 0
-1019 -2635 0
-1020 -2636 0
-1017 -2837 0
-1018 -2838 0
-1019 -2839 0
-1020 -2840 0
-1017 -3841 0
-1018 -3842 0
-1019 -3843 0
-1020 -3844 0
-1021 -1025 0
-1022 -1026 0
-1023 -1027 0
-1024 -1028 0
-1021 -1045 0
-1022 -1046 0
-1023 -1047 0
-1024 -1048 0
-1021 -1345 0
-1022 -1346 0
-1023 -1347 0
-1024 -1348 0
-1021 -1397 0
-1022 -1398 0
-1023 -1399 0
-1024 -1400 0
-1021 -1721 0
-1022 -1722 0
-1023 -1723 0
-1024 -1724 0
-1021 -2609 0
-1022 -2610 0
-1023 -2611 0
-1024 -2612 0
-1021 -3077 0
-1022 -3078 0
-1023 -3079 0
-1024 -3080 0
-1021 -3805 0
-1022 -3806 0
-1023 -3807 0
-1024 -3808 0
-1025 -1241 0
-1026 -1242 0
-1027 -1243 0
-1028 -1244 0
-1025 -1345 0
-1026 -1346 0
-1027 -1347 0
-1028 -1348 0
-1025 -1433 0
-1026 -1434 0
-1027 -1435 0
-1028 -1436 0
-1025 -2377 0
-1026 -2378 0
-1027 -2379 0
-1028 -2380 0
-1025 -2937 0
-1026 -2938 0
-1027 -2939 0
-1028 -2940 0
-1025 -3805 0
-1026 -3806 0
-1027 -3807 0
-1028 -3808 0
-1029 -1225 0
-1030 -1226 0
-1031 -1227 0
-1032 -1228 0
-1029 -1237 0
-1030 -1238 0
-1031 -1239 0
-1032 -1240 0
-1029 -1341 0
-1030 -1342 0
-1031 -1343 0
-1032 -1344 0
-1029 -1409 0
-1030 -1410 0
-1031 -1411 0
-1032 -1412 0
-1029 -1733 0
-1030 -1734 0
-1031 -1735 0
-1032 -1736 0
-1029 -2381 0
-1030 -2382 0
-1031 -2383 0
-1032 -2384 0
-1029 -2881 0
-1030 -2882 0
-1031 -2883 0
-1032 -2884 0
-1029 -3797 0
-1030 -3798 0
-1031 -3799 0
-1032 -3800 0
-1033 -1229 0
-1034 -1230 0
-1035 -1231 0
-1036 -1232 0
-1033 -1317 0
-1034 -1318 0
-1035 -1319 0
-1036 -1320 0
-1033 -1337 0
-1034 -1338 0
-1035 -1339 0
-1036 -1340 0
-1033 -1477 0
-1034 -1478 0
-1035 -1479 0
-1036 -1480 0
-1033 -2557 0
-1034 -2558 0
-1035 -2559 0
-1036 -2560 0
-1033 -3069 0
-1034 -3070 0
-1035 -3071 0
-1036 -3072 0
-1033 -3805 0
-1034 -3806 0
-1035 -3807 0
-1036 -3808 0
-1037 -1149 0
-1038 -1150 0
-1039 -1151 0
-1040 -1152 0
-1037 -1193 0
-1038 -1194 0
-1039 -1195 0
-1040 -1196 0
-1037 -1261 0
-1038 -1262 0
-1039 -1263 0
-1040 -1264 0
-1037 -1553 0
-1038 -1554 0
-1039 -1555 0
-1040 -1556 0
-1037 -2561 0
-1038 -2562 0
-1039 -2563 0
-1040 -2564 0
-1037 -3129 0
-1038 -3130 0
-1039 -3131 0
-1040 -3132 0
-1037 -3837 0
-1038 -3838 0
-1039 -3839 0
-1040 -3840 0
-1041 -1185 0
-1042 -1186 0
-1043 -1187 0
-1044 -1188 0
-1041 -1329 0
-1042 -1330 0
-1043 -1331 0
-1044 -1332 0
-1041 -1417 0
-1042 -1418 0
-1043 -1419 0
-1044 -1420 0
-1041 -1669 0
-1042 -1670 0
-1043 -1671 0
-1044 -1672 0
-1041 -2565 0
-1042 -2566 0
-1043 -2567 0
-1044 -2568 0
-1041 -3125 0
-1042 -3126 0
-1043 -3127 0
-1044 -3128 0
-1041 -3841 0
-1042 -3842 0
-1043 -3843 0
-1044 -3844 0
-1045 -1345 0
-1046 -1346 0
-1047 -1347 0
-1048 -1348 0
-1045 -1397 0
-1046 -1398 0
-1047 -1399 0
-1048 -1400 0
-1045 -1873 0
-1046 -1874 0
-1047 -1875 0
-1048 -1876 0
-1045 -2569 0
-1046 -2570 0
-1047 -2571 0
-1048 -2572 0
-1045 -2893 0
-1046 -2894 0
-1047 -2895 0
-1048 -2896 0
-1045 -3813 0
-1046 -3814 0
-1047 -3815 0
-1048 -3816 0
-1049 -1133 0
-1050 -1134 0
-1051 -1135 0
-1052 -1136 0
-1049 -1213 0
-1050 -1214 0
-1051 -1215 0
-1052 -1216 0
-1049 -1857 0
-1050 -1858 0
-1051 -1859 0
-1052 -1860 0
-1049 -2573 0
-1050 -2574 0
-1051 -2575 0
-1052 -2576 0
-1049 -3237 0
-1050 -3238 0
-1051 -3239 0
-1052 -3240 0
-1049 -3841 0
-1050 -3842 0
-1051 -3843 0
-1052 -3844 0
-1053 -1085 0
-1054 -1086 0
-1055 -1087 0
-1056 -1088 0
-1053 -1205 0
-1054 -1206 0
-1055 -1207 0
-1056 -1208 0
-1053 -1649 0
-1054 -1650 0
-1055 -1651 0
-1056 -1652 0
-1053 -2577 0
-1054 -2578 0
-1055 -2579 0
-1056 -2580 0
-1053 -2885 0
-1054 -2886 0
-1055 -2887 0
-1056 -2888 0
-1053 -3837 0
-1054 -3838 0
-1055 -3839 0
-1056 -3840 0
-1057 -1301 0
-1058 -1302 0
-1059 -1303 0
-1060 -1304 0
-1057 -1317 0
-1058 -1318 0
-1059 -1319 0
-1060 -1320 0
-1057 -1785 0
-1058 -1786 0
-1059 -1787 0
-1060 -1788 0
-1057 -2537 0
-1058 -2538 0
-1059 -2539 0
-1060 -2540 0
-1057 -3241 0
-1058 -3242 0
-1059 -3243 0
-1060 -3244 0
-1057 -3813 0
-1058 -3814 0
-1059 -3815 0
-1060 -3816 0
-1061 -1173 0
-1062 -1174 0
-1063 -1175 0
-1064 -1176 0
-1061 -1253 0
-1062 -1254 0
-1063 -1255 0
-1064 -1256 0
-1061 -1297 0
-1062 -1298 0
-1063 -1299 0
-1064 -1300 0
-1061 -1349 0
-1062 -1350 0
-1063 -1351 0
-1064 -1352 0
-1061 -1801 0
-1062 -1802 0
-1063 -1803 0
-1064 -1804 0
-1061 -2369 0
-1062 -2370 0
-1063 -2371 0
-1064 -2372 0
-1061 -3029 0
-1062 -3030 0
-1063 -3031 0
-1064 -3032 0
-1061 -3801 0
-1062 -3802 0
-1063 -3803 0
-1064 -3804 0
-1065 -1081 0
-1066 -1082 0
-1067 -1083 0
-1068 -1084 0
-1065 -1121 0
-1066 -1122 0
-1067 -1123 0
-1068 -1124 0
-1065 -1313 0
-1066 -1314 0
-1067 -1315 0
-1068 -1316 0
-1065 -1361 0
-1066 -1362 0
-1067 -1363 0
-1068 -1364 0
-1065 -2481 0
-1066 -2482 0
-1067 -2483 0
-1068 -2484 0
-1065 -3181 0
-1066 -3182 0
-1067 -3183 0
-1068 -3184 0
-1065 -3833 0
-1066 -3834 0
-1067 -3835 0
-1068 -3836 0
-1069 -1189 0
-1070 -1190 0
-1071 -1191 0
-1072 -1192 0
-1069 -1309 0
-1070 -1310 0
-1071 -1311 0
-1072 -1312 0
-1069 -1321 0
-1070 -1322 0
-1071 -1323 0
-1072 -1324 0
-1069 -1625 0
-1070 -1626 0
-1071 -1627 0
-1072 -1628 0
-1069 -2613 0
-1070 -2614 0
-1071 -2615 0
-1072 -2616 0
-1069 -3177 0
-1070 -3178 0
-1071 -3179 0
-1072 -3180 0
-1069 -3809 0
-1070 -3810 0
-1071 -3811 0
-1072 -3812 0
-1073 -1197 0
-1074 -1198 0
-1075 -1199 0
-1076 -1200 0
-1073 -1249 0
-1074 -1250 0
-1075 -1251 0
-1076 -1252 0
-1073 -1289 0
-1074 -1290 0
-1075 -1291 0
-1076 -1292 0
-1073 -1425 0
-1074 -1426 0
-1075 -1427 0
-1076 -1428 0
-1073 -1457 0
-1074 -1458 0
-1075 -1459 0
-1076 -1460 0
-1073 -2389 0
-1074 -2390 0
-1075 -2391 0
-1076 -2392 0
-1073 -3265 0
-1074 -3266 0
-1075 -3267 0
-1076 -3268 0
-1073 -3829 0
-1074 -3830 0
-1075 -3831 0
-1076 -3832 0
-1077 -1097 0
-1078 -1098 0
-1079 -1099 0
-1080 -1100 0
-1077 -1113 0
-1078 -1114 0
-1079 -1115 0
-1080 -1116 0
-1077 -1285 0
-1078 -1286 0
-1079 -1287 0
-1080 -1288 0
-1077 -1377 0
-1078 -1378 0
-1079 -1379 0
-1080 -1380 0
-1077 -1573 0
-1078 -1574 0
-1079 -1575 0
-1080 -1576 0
-1077 -2585 0
-1078 -2586 0
-1079 -2587 0
-1080 -2588 0
-1077 -3173 0
-1078 -3174 0
-1079 -3175 0
-1080 -3176 0
-1077 -3825 0
-1078 -3826 0
-1079 -3827 0
-1080 -3828 0
-1081 -1089 0
-1082 -1090 0
-1083 -1091 0
-1084 -1092 0
-1081 -1153 0
-1082 -1154 0
-1083 -1155 0
-1084 -1156 0
-1081 -1313 0
-1082 -1314 0
-1083 -1315 0
-1084 -1316 0
-1081 -1753 0
-1082 -1754 0
-1083 -1755 0
-1084 -1756 0
-1081 -2717 0
-1082 -2718 0
-1083 -2719 0
-1084 -2720 0
-1081 -3017 0
-1082 -3018 0
-1083 -3019 0
-1084 -3020 0
-1081 -3833 0
-1082 -3834 0
-1083 -3835 0
-1084 -3836 0
-1085 -1205 0
-1086 -1206 0
-1087 -1207 0
-1088 -1208 0
-1085 -1381 0
-1086 -1382 0
-1087 -1383 0
-1088 -1384 0
-1085 -1509 0
-1086 -1510 0
-1087 -1511 0
-1088 -1512 0
-1085 -2461 0
-1086 -2462 0
-1087 -2463 0
-1088 -2464 0
-1085 -3285 0
-1086 -3286 0
-1087 -3287 0
-1088 -3288 0
-1085 -3841 0
-1086 -3842 0
-1087 -3843 0
-1088 -3844 0
-1089 -1145 0
-1090 -1146 0
-1091 -1147 0
-1092 -1148 0
-1089 -1153 0
-1090 -1154 0
-1091 -1155 0
-1092 -1156 0
-1089 -1165 0
-1090 -1166 0
-1091 -1167 0
-1092 -1168 0
-1089 -1809 0
-1090 -1810 0
-1091 -1811 0
-1092 -1812 0
-1089 -2721 0
-1090 -2722 0
-1091 -2723 0
-1092 -2724 0
-1089 -3133 0
-1090 -3134 0
-1091 -3135 0
-1092 -3136 0
-1089 -3833 0
-1090 -3834 0
-1091 -3835 0
-1092 -3836 0
-1093 -1209 0
-1094 -1210 0
-1095 -1211 0
-1096 -1212 0
-1093 -1273 0
-1094 -1274 0
-1095 -1275 0
-1096 -1276 0
-1093 -1401 0
-1094 -1402 0
-1095 -1403 0
-1096 -1404 0
-1093 -1677 0
-1094 -1678 0
-1095 -1679 0
-1096 -1680 0
-1093 -2597 0
-1094 -2598 0
-1095 -2599 0
-1096 -2600 0
-1093 -2869 0
-1094 -2870 0
-1095 -2871 0
-1096 -2872 0
-1093 -3817 0
-1094 -3818 0
-1095 -3819 0
-1096 -3820 0
-1097 -1137 0
-1098 -1138 0
-1099 -1139 0
-1100 -1140 0
-1097 -1277 0
-1098 -1278 0
-1099 -1279 0
-1100 -1280 0
-1097 -1377 0
-1098 -1378 0
-1099 -1379 0
-1100 -1380 0
-1097 -1673 0
-1098 -1674 0
-1099 -1675 0
-1100 -1676 0
-1097 -2725 0
-1098 -2726 0
-1099 -2727 0
-1100 -2728 0
-1097 -3161 0
-1098 -3162 0
-1099 -3163 0
-1100 -3164 0
-1097 -3825 0
-1098 -3826 0
-1099 -3827 0
-1100 -3828 0
-1101 -1213 0
-1102 -1214 0
-1103 -1215 0
-1104 -1216 0
-1101 -1329 0
-1102 -1330 0
-1103 -1331 0
-1104 -1332 0
-1101 -1417 0
-1102 -1418 0
-1103 -1419 0
-1104 -1420 0
-1101 -1489 0
-1102 -1490 0
-1103 -1491 0
-1104 -1492 0
-1101 -2697 0
-1102 -2698 0
-1103 -2699 0
-1104 -2700 0
-1101 -3293 0
-1102 -3294 0
-1103 -3295 0
-1104 -3296 0
-1101 -3837 0
-1102 -3838 0
-1103 -3839 0
-1104 -3840 0
-1105 -1129 0
-1106 -1130 0
-1107 -1131 0
-1108 -1132 0
-1105 -1137 0
-1106 -1138 0
-1107 -1139 0
-1108 -1140 0
-1105 -1217 0
-1106 -1218 0
-1107 -1219 0
-1108 -1220 0
-1105 -1277 0
-1106 -1278 0
-1107 -1279 0
-1108 -1280 0
-1105 -1545 0
-1106 -1546 0
-1107 -1547 0
-1108 -1548 0
-1105 -2393 0
-1106 -2394 0
-1107 -2395 0
-1108 -2396 0
-1105 -3269 0
-1106 -3270 0
-1107 -3271 0
-1108 -3272 0
-1105 -3833 0
-1106 -3834 0
-1107 -3835 0
-1108 -3836 0
-1109 -1125 0
-1110 -1126 0
-1111 -1127 0
-1112 -1128 0
-1109 -1209 0
-1110 -1210 0
-1111 -1211 0
-1112 -1212 0
-1109 -1221 0
-1110 -1222 0
-1111 -1223 0
-1112 -1224 0
-1109 -1273 0
-1110 -1274 0
-1111 -1275 0
-1112 -1276 0
-1109 -1637 0
-1110 -1638 0
-1111 -1639 0
-1112 -1640 0
-1109 -2397 0
-1110 -2398 0
-1111 -2399 0
-1112 -2400 0
-1109 -3273 0
-1110 -3274 0
-1111 -3275 0
-1112 -3276 0
-1109 -3809 0
-1110 -3810 0
-1111 -3811 0
-1112 -3812 0
-1113 -1129 0
-1114 -1130 0
-1115 -1131 0
-1116 -1132 0
-1113 -1217 0
-1114 -1218 0
-1115 -1219 0
-1116 -1220 0
-1113 -1285 0
-1114 -1286 0
-1115 -1287 0
-1116 -1288 0
-1113 -1729 0
-1114 -1730 0
-1115 -1731 0
-1116 -1732 0
-1113 -2797 0
-1114 -2798 0
-1115 -2799 0
-1116 -2800 0
-1113 -2925 0
-1114 -2926 0
-1115 -2927 0
-1116 -2928 0
-1113 -3825 0
-1114 -3826 0
-1115 -3827 0
-1116 -3828 0
-1117 -1161 0
-1118 -1162 0
-1119 -1163 0
-1120 -1164 0
-1117 -1365 0
-1118 -1366 0
-1119 -1367 0
-1120 -1368 0
-1117 -1389 0
-1118 -1390 0
-1119 -1391 0
-1120 -1392 0
-1117 -1697 0
-1118 -1698 0
-1119 -1699 0
-1120 -1700 0
-1117 -2589 0
-1118 -2590 0
-1119 -2591 0
-1120 -2592 0
-1117 -2933 0
-1118 -2934 0
-1119 -2935 0
-1120 -2936 0
-1117 -3821 0
-1118 -3822 0
-1119 -3823 0
-1120 -3824 0
-1121 -1145 0
-1122 -1146 0
-1123 -1147 0
-1124 -1148 0
-1121 -1305 0
-1122 -1306 0
-1123 -1307 0
-1124 -1308 0
-1121 -1361 0
-1122 -1362 0
-1123 -1363 0
-1124 -1364 0
-1121 -2805 0
-1122 -2806 0
-1123 -2807 0
-1124 -2808 0
-1121 -3141 0
-1122 -3142 0
-1123 -3143 0
-1124 -3144 0
-1121 -3833 0
-1122 -3834 0
-1123 -3835 0
-1124 -3836 0
-1125 -1209 0
-1126 -1210 0
-1127 -1211 0
-1128 -1212 0
-1125 -1221 0
-1126 -1222 0
-1127 -1223 0
-1128 -1224 0
-1125 -1841 0
-1126 -1842 0
-1127 -1843 0
-1128 -1844 0
-1125 -2777 0
-1126 -2778 0
-1127 -2779 0
-1128 -2780 0
-1125 -3145 0
-1126 -3146 0
-1127 -3147 0
-1128 -3148 0
-1125 -3817 0
-1126 -3818 0
-1127 -3819 0
-1128 -3820 0
-1129 -1137 0
-1130 -1138 0
-1131 -1139 0
-1132 -1140 0
-1129 -1217 0
-1130 -1218 0
-1131 -1219 0
-1132 -1220 0
-1129 -1821 0
-1130 -1822 0
-1131 -1823 0
-1132 -1824 0
-1129 -2801 0
-1130 -2802 0
-1131 -2803 0
-1132 -2804 0
-1129 -3149 0
-1130 -3150 0
-1131 -3151 0
-1132 -3152 0
-1129 -3825 0
-1130 -3826 0
-1131 -3827 0
-1132 -3828 0
-1133 -1185 0
-1134 -1186 0
-1135 -1187 0
-1136 -1188 0
-1133 -1213 0
-1134 -1214 0
-1135 -1215 0
-1136 -1216 0
-1133 -1777 0
-1134 -1778 0
-1135 -1779 0
-1136 -1780 0
-1133 -2693 0
-1134 -2694 0
-1135 -2695 0
-1136 -2696 0
-1133 -3097 0
-1134 -3098 0
-1135 -3099 0
-1136 -3100 0
-1133 -3837 0
-1134 -3838 0
-1135 -3839 0
-1136 -3840 0
-1137 -1277 0
-1138 -1278 0
-1139 -1279 0
-1140 -1280 0
-1137 -1737 0
-1138 -1738 0
-1139 -1739 0
-1140 -1740 0
-1137 -2809 0
-1138 -2810 0
-1139 -2811 0
-1140 -2812 0
-1137 -2841 0
-1138 -2842 0
-1139 -2843 0
-1140 -2844 0
-1137 -3825 0
-1138 -3826 0
-1139 -3827 0
-1140 -3828 0
-1141 -1169 0
-1142 -1170 0
-1143 -1171 0
-1144 -1172 0
-1141 -1189 0
-1142 -1190 0
-1143 -1191 0
-1144 -1192 0
-1141 -1201 0
-1142 -1202 0
-1143 -1203 0
-1144 -1204 0
-1141 -1413 0
-1142 -1414 0
-1143 -1415 0
-1144 -1416 0
-1141 -1757 0
-1142 -1758 0
-1143 -1759 0
-1144 -1760 0
-1141 -2453 0
-1142 -2454 0
-1143 -2455 0
-1144 -2456 0
-1141 -2845 0
-1142 -2846 0
-1143 -2847 0
-1144 -2848 0
-1141 -3809 0
-1142 -3810 0
-1143 -3811 0
-1144 -3812 0
-1145 -1165 0
-1146 -1166 0
-1147 -1167 0
-1148 -1168 0
-1145 -1305 0
-1146 -1306 0
-1147 -1307 0
-1148 -1308 0
-1145 -1761 0
-1146 -1762 0
-1147 -1763 0
-1148 -1764 0
-1145 -2749 0
-1146 -2750 0
-1147 -2751 0
-1148 -2752 0
-1145 -2849 0
-1146 -2850 0
-1147 -2851 0
-1148 -2852 0
-1145 -3833 0
-1146 -3834 0
-1147 -3835 0
-1148 -3836 0
-1149 -1193 0
-1150 -1194 0
-1151 -1195 0
-1152 -1196 0
-1149 -1205 0
-1150 -1206 0
-1151 -1207 0
-1152 -1208 0
-1149 -1473 0
-1150 -1474 0
-1151 -1475 0
-1152 -1476 0
-1149 -2581 0
-1150 -2582 0
-1151 -2583 0
-1152 -2584 0
-1149 -2853 0
-1150 -2854 0
-1151 -2855 0
-1152 -2856 0
-1149 -3841 0
-1150 -3842 0
-1151 -3843 0
-1152 -3844 0
-1153 -1165 0
-1154 -1166 0
-1155 -1167 0
-1156 -1168 0
-1153 -1313 0
-1154 -1314 0
-1155 -1315 0
-1156 -1316 0
-1153 -1589 0
-1154 -1590 0
-1155 -1591 0
-1156 -1592 0
-1153 -2649 0
-1154 -2650 0
-1155 -2651 0
-1156 -2652 0
-1153 -3085 0
-1154 -3086 0
-1155 -3087 0
-1156 -3088 0
-1153 -3825 0
-1154 -3826 0
-1155 -3827 0
-1156 -3828 0
-1157 -1169 0
-1158 -1170 0
-1159 -1171 0
-1160 -1172 0
-1157 -1201 0
-1158 -1202 0
-1159 -1203 0
-1160 -1204 0
-1157 -1309 0
-1158 -1310 0
-1159 -1311 0
-1160 -1312 0
-1157 -1645 0
-1158 -1646 0
-1159 -1647 0
-1160 -1648 0
-1157 -2645 0
-1158 -2646 0
-1159 -2647 0
-1160 -2648 0
-1157 -3009 0
-1158 -3010 0
-1159 -3011 0
-1160 -3012 0
-1157 -3817 0
-1158 -3818 0
-1159 -3819 0
-1160 -3820 0
-1161 -1293 0
-1162 -1294 0
-1163 -1295 0
-1164 -1296 0
-1161 -1365 0
-1162 -1366 0
-1163 -1367 0
-1164 -1368 0
-1161 -1429 0
-1162 -1430 0
-1163 -1431 0
-1164 -1432 0
-1161 -1445 0
-1162 -1446 0
-1163 -1447 0
-1164 -1448 0
-1161 -2429 0
-1162 -2430 0
-1163 -2431 0
-1164 -2432 0
-1161 -3105 0
-1162 -3106 0
-1163 -3107 0
-1164 -3108 0
-1161 -3821 0
-1162 -3822 0
-1163 -3823 0
-1164 -3824 0
-1165 -1305 0
-1166 -1306 0
-1167 -1307 0
-1168 -1308 0
-1165 -1533 0
-1166 -1534 0
-1167 -1535 0
-1168 -1536 0
-1165 -2433 0
-1166 -2434 0
-1167 -2435 0
-1168 -2436 0
-1165 -3109 0
-1166 -3110 0
-1167 -3111 0
-1168 -3112 0
-1165 -3825 0
-1166 -3826 0
-1167 -3827 0
-1168 -3828 0
-1169 -1201 0
-1170 -1202 0
-1171 -1203 0
-1172 -1204 0
-1169 -1413 0
-1170 -1414 0
-1171 -1415 0
-1172 -1416 0
-1169 -1537 0
-1170 -1538 0
-1171 -1539 0
-1172 -1540 0
-1169 -2437 0
-1170 -2438 0
-1171 -2439 0
-1172 -2440 0
-1169 -3113 0
-1170 -3114 0
-1171 -3115 0
-1172 -3116 0
-1169 -3817 0
-1170 -3818 0
-1171 -3819 0
-1172 -3820 0
-1173 -1233 0
-1174 -1234 0
-1175 -1235 0
-1176 -1236 0
-1173 -1253 0
-1174 -1254 0
-1175 -1255 0
-1176 -1256 0
-1173 -1333 0
-1174 -1334 0
-1175 -1335 0
-1176 -1336 0
-1173 -1805 0
-1174 -1806 0
-1175 -1807 0
-1176 -1808 0
-1173 -2441 0
-1174 -2442 0
-1175 -2443 0
-1176 -2444 0
-1173 -2949 0
-1174 -2950 0
-1175 -2951 0
-1176 -2952 0
-1173 -3801 0
-1174 -3802 0
-1175 -3803 0
-1176 -3804 0
-1177 -1269 0
-1178 -1270 0
-1179 -1271 0
-1180 -1272 0
-1177 -1397 0
-1178 -1398 0
-1179 -1399 0
-1180 -1400 0
-1177 -1433 0
-1178 -1434 0
-1179 -1435 0
-1180 -1436 0
-1177 -1793 0
-1178 -1794 0
-1179 -1795 0
-1180 -1796 0
-1177 -2445 0
-1178 -2446 0
-1179 -2447 0
-1180 -2448 0
-1177 -2981 0
-1178 -2982 0
-1179 -2983 0
-1180 -2984 0
-1177 -3805 0
-1178 -3806 0
-1179 -3807 0
-1180 -3808 0
-1181 -1225 0
-1182 -1226 0
-1183 -1227 0
-1184 -1228 0
-1181 -1265 0
-1182 -1266 0
-1183 -1267 0
-1184 -1268 0
-1181 -1281 0
-1182 -1282 0
-1183 -1283 0
-1184 -1284 0
-1181 -1789 0
-1182 -1790 0
-1183 -1791 0
-1184 -1792 0
-1181 -2449 0
-1182 -2450 0
-1183 -2451 0
-1184 -2452 0
-1181 -2985 0
-1182 -2986 0
-1183 -2987 0
-1184 -2988 0
-1181 -3797 0
-1182 -3798 0
-1183 -3799 0
-1184 -3800 0
-1185 -1417 0
-1186 -1418 0
-1187 -1419 0
-1188 -1420 0
-1185 -1469 0
-1186 -1470 0
-1187 -1471 0
-1188 -1472 0
-1185 -2473 0
-1186 -2474 0
-1187 -2475 0
-1188 -2476 0
-1185 -3277 0
-1186 -3278 0
-1187 -3279 0
-1188 -3280 0
-1185 -3837 0
-1186 -3838 0
-1187 -3839 0
-1188 -3840 0
-1189 -1321 0
-1190 -1322 0
-1191 -1323 0
-1192 -1324 0
-1189 -1413 0
-1190 -1414 0
-1191 -1415 0
-1192 -1416 0
-1189 -1617 0
-1190 -1618 0
-1191 -1619 0
-1192 -1620 0
-1189 -2513 0
-1190 -2514 0
-1191 -2515 0
-1192 -2516 0
-1189 -3209 0
-1190 -3210 0
-1191 -3211 0
-1192 -3212 0
-1189 -3809 0
-1190 -3810 0
-1191 -3811 0
-1192 -3812 0
-1193 -1261 0
-1194 -1262 0
-1195 -1263 0
-1196 -1264 0
-1193 -1381 0
-1194 -1382 0
-1195 -1383 0
-1196 -1384 0
-1193 -1521 0
-1194 -1522 0
-1195 -1523 0
-1196 -1524 0
-1193 -2741 0
-1194 -2742 0
-1195 -2743 0
-1196 -2744 0
-1193 -3301 0
-1194 -3302 0
-1195 -3303 0
-1196 -3304 0
-1193 -3841 0
-1194 -3842 0
-1195 -3843 0
-1196 -3844 0
-1197 -1249 0
-1198 -1250 0
-1199 -1251 0
-1200 -1252 0
-1197 -1393 0
-1198 -1394 0
-1199 -1395 0
-1200 -1396 0
-1197 -2489 0
-1198 -2490 0
-1199 -2491 0
-1200 -2492 0
-1197 -3025 0
-1198 -3026 0
-1199 -3027 0
-1200 -3028 0
-1197 -3829 0
-1198 -3830 0
-1199 -3831 0
-1200 -3832 0
-1201 -1769 0
-1202 -1770 0
-1203 -1771 0
-1204 -1772 0
-1201 -2761 0
-1202 -2762 0
-1203 -2763 0
-1204 -2764 0
-1201 -3137 0
-1202 -3138 0
-1203 -3139 0
-1204 -3140 0
-1201 -3809 0
-1202 -3810 0
-1203 -3811 0
-1204 -3812 0
-1205 -1713 0
-1206 -1714 0
-1207 -1715 0
-1208 -1716 0
-1205 -2689 0
-1206 -2690 0
-1207 -2691 0
-1208 -2692 0
-1205 -3101 0
-1206 -3102 0
-1207 -3103 0
-1208 -3104 0
-1205 -3841 0
-1206 -3842 0
-1207 -3843 0
-1208 -3844 0
-1209 -1273 0
-1210 -1274 0
-1211 -1275 0
-1212 -1276 0
-1209 -2417 0
-1210 -2418 0
-1211 -2419 0
-1212 -2420 0
-1209 -2989 0
-1210 -2990 0
-1211 -2991 0
-1212 -2992 0
-1209 -3817 0
-1210 -3818 0
-1211 -3819 0
-1212 -3820 0
-1213 -1513 0
-1214 -1514 0
-1215 -1515 0
-1216 -1516 0
-1213 -2465 0
-1214 -2466 0
-1215 -2467 0
-1216 -2468 0
-1213 -2993 0
-1214 -2994 0
-1215 -2995 0
-1216 -2996 0
-1213 -3837 0
-1214 -3838 0
-1215 -3839 0
-1216 -3840 0
-1217 -1285 0
-1218 -1286 0
-1219 -1287 0
-1220 -1288 0
-1217 -1565 0
-1218 -1566 0
-1219 -1567 0
-1220 -1568 0
-1217 -2765 0
-1218 -2766 0
-1219 -2767 0
-1220 -2768 0
-1217 -2905 0
-1218 -2906 0
-1219 -2907 0
-1220 -2908 0
-1217 -3833 0
-1218 -3834 0
-1219 -3835 0
-1220 -3836 0
-1221 -1385 0
-1222 -1386 0
-1223 -1387 0
-1224 -1388 0
-1221 -1561 0
-1222 -1562 0
-1223 -1563 0
-1224 -1564 0
-1221 -2769 0
-1222 -2770 0
-1223 -2771 0
-1224 -2772 0
-1221 -2901 0
-1222 -2902 0
-1223 -2903 0
-1224 -2904 0
-1221 -3809 0
-1222 -3810 0
-1223 -3811 0
-1224 -3812 0
-1225 -1237 0
-1226 -1238 0
-1227 -1239 0
-1228 -1240 0
-1225 -1265 0
-1226 -1266 0
-1227 -1267 0
-1228 -1268 0
-1225 -1817 0
-1226 -1818 0
-1227 -1819 0
-1228 -1820 0
-1225 -2405 0
-1226 -2406 0
-1227 -2407 0
-1228 -2408 0
-1225 -3261 0
-1226 -3262 0
-1227 -3263 0
-1228 -3264 0
-1225 -3797 0
-1226 -3798 0
-1227 -3799 0
-1228 -3800 0
-1229 -1317 0
-1230 -1318 0
-1231 -1319 0
-1232 -1320 0
-1229 -1337 0
-1230 -1338 0
-1231 -1339 0
-1232 -1340 0
-1229 -1421 0
-1230 -1422 0
-1231 -1423 0
-1232 -1424 0
-1229 -1749 0
-1230 -1750 0
-1231 -1751 0
-1232 -1752 0
-1229 -2409 0
-1230 -2410 0
-1231 -2411 0
-1232 -2412 0
-1229 -3057 0
-1230 -3058 0
-1231 -3059 0
-1232 -3060 0
-1229 -3813 0
-1230 -3814 0
-1231 -3815 0
-1232 -3816 0
-1233 -1333 0
-1234 -1334 0
-1235 -1335 0
-1236 -1336 0
-1233 -1353 0
-1234 -1354 0
-1235 -1355 0
-1236 -1356 0
-1233 -1745 0
-1234 -1746 0
-1235 -1747 0
-1236 -1748 0
-1233 -2413 0
-1234 -2414 0
-1235 -2415 0
-1236 -2416 0
-1233 -3053 0
-1234 -3054 0
-1235 -3055 0
-1236 -3056 0
-1233 -3801 0
-1234 -3802 0
-1235 -3803 0
-1236 -3804 0
-1237 -1265 0
-1238 -1266 0
-1239 -1267 0
-1240 -1268 0
-1237 -1341 0
-1238 -1342 0
-1239 -1343 0
-1240 -1344 0
-1237 -1453 0
-1238 -1454 0
-1239 -1455 0
-1240 -1456 0
-1237 -2673 0
-1238 -2674 0
-1239 -2675 0
-1240 -2676 0
-1237 -3005 0
-1238 -3006 0
-1239 -3007 0
-1240 -3008 0
-1237 -3801 0
-1238 -3802 0
-1239 -3803 0
-1240 -3804 0
-1241 -1269 0
-1242 -1270 0
-1243 -1271 0
-1244 -1272 0
-1241 -1345 0
-1242 -1346 0
-1243 -1347 0
-1244 -1348 0
-1241 -1433 0
-1242 -1434 0
-1243 -1435 0
-1244 -1436 0
-1241 -1837 0
-1242 -1838 0
-1243 -1839 0
-1244 -1840 0
-1241 -2677 0
-1242 -2678 0
-1243 -2679 0
-1244 -2680 0
-1241 -3001 0
-1242 -3002 0
-1243 -3003 0
-1244 -3004 0
-1241 -3813 0
-1242 -3814 0
-1243 -3815 0
-1244 -3816 0
-1245 -1293 0
-1246 -1294 0
-1247 -1295 0
-1248 -1296 0
-1245 -1325 0
-1246 -1326 0
-1247 -1327 0
-1248 -1328 0
-1245 -1429 0
-1246 -1430 0
-1247 -1431 0
-1248 -1432 0
-1245 -1585 0
-1246 -1586 0
-1247 -1587 0
-1248 -1588 0
-1245 -2553 0
-1246 -2554 0
-1247 -2555 0
-1248 -2556 0
-1245 -3217 0
-1246 -3218 0
-1247 -3219 0
-1248 -3220 0
-1245 -3829 0
-1246 -3830 0
-1247 -3831 0
-1248 -3832 0
-1249 -1289 0
-1250 -1290 0
-1251 -1291 0
-1252 -1292 0
-1249 -1845 0
-1250 -1846 0
-1251 -1847 0
-1252 -1848 0
-1249 -2549 0
-1250 -2550 0
-1251 -2551 0
-1252 -2552 0
-1249 -3213 0
-1250 -3214 0
-1251 -3215 0
-1252 -3216 0
-1249 -3821 0
-1250 -3822 0
-1251 -3823 0
-1252 -3824 0
-1253 -1297 0
-1254 -1298 0
-1255 -1299 0
-1256 -1300 0
-1253 -1333 0
-1254 -1334 0
-1255 -1335 0
-1256 -1336 0
-1253 -1465 0
-1254 -1466 0
-1255 -1467 0
-1256 -1468 0
-1253 -2813 0
-1254 -2814 0
-1255 -2815 0
-1256 -2816 0
-1253 -2917 0
-1254 -2918 0
-1255 -2919 0
-1256 -2920 0
-1253 -3797 0
-1254 -3798 0
-1255 -3799 0
-1256 -3800 0
-1257 -1301 0
-1258 -1302 0
-1259 -1303 0
-1260 -1304 0
-1257 -1337 0
-1258 -1338 0
-1259 -1339 0
-1260 -1340 0
-1257 -1421 0
-1258 -1422 0
-1259 -1423 0
-1260 -1424 0
-1257 -1765 0
-1258 -1766 0
-1259 -1767 0
-1260 -1768 0
-1257 -2705 0
-1258 -2706 0
-1259 -2707 0
-1260 -2708 0
-1257 -2913 0
-1258 -2914 0
-1259 -2915 0
-1260 -2916 0
-1257 -3805 0
-1258 -3806 0
-1259 -3807 0
-1260 -3808 0
-1261 -1381 0
-1262 -1382 0
-1263 -1383 0
-1264 -1384 0
-1261 -1661 0
-1262 -1662 0
-1263 -1663 0
-1264 -1664 0
-1261 -2793 0
-1262 -2794 0
-1263 -2795 0
-1264 -2796 0
-1261 -2969 0
-1262 -2970 0
-1263 -2971 0
-1264 -2972 0
-1261 -3837 0
-1262 -3838 0
-1263 -3839 0
-1264 -3840 0
-1265 -1281 0
-1266 -1282 0
-1267 -1283 0
-1268 -1284 0
-1265 -1849 0
-1266 -1850 0
-1267 -1851 0
-1268 -1852 0
-1265 -2685 0
-1266 -2686 0
-1267 -2687 0
-1268 -2688 0
-1265 -3245 0
-1266 -3246 0
-1267 -3247 0
-1268 -3248 0
-1265 -3801 0
-1266 -3802 0
-1267 -3803 0
-1268 -3804 0
-1269 -1433 0
-1270 -1434 0
-1271 -1435 0
-1272 -1436 0
-1269 -1493 0
-1270 -1494 0
-1271 -1495 0
-1272 -1496 0
-1269 -2785 0
-1270 -2786 0
-1271 -2787 0
-1272 -2788 0
-1269 -3249 0
-1270 -3250 0
-1271 -3251 0
-1272 -3252 0
-1269 -3813 0
-1270 -3814 0
-1271 -3815 0
-1272 -3816 0
-1273 -1401 0
-1274 -1402 0
-1275 -1403 0
-1276 -1404 0
-1273 -1441 0
-1274 -1442 0
-1275 -1443 0
-1276 -1444 0
-1273 -2637 0
-1274 -2638 0
-1275 -2639 0
-1276 -2640 0
-1273 -3073 0
-1274 -3074 0
-1275 -3075 0
-1276 -3076 0
-1273 -3809 0
-1274 -3810 0
-1275 -3811 0
-1276 -3812 0
-1277 -1377 0
-1278 -1378 0
-1279 -1379 0
-1280 -1380 0
-1277 -1581 0
-1278 -1582 0
-1279 -1583 0
-1280 -1584 0
-1277 -2641 0
-1278 -2642 0
-1279 -2643 0
-1280 -2644 0
-1277 -3297 0
-1278 -3298 0
-1279 -3299 0
-1280 -3300 0
-1277 -3833 0
-1278 -3834 0
-1279 -3835 0
-1280 -3836 0
-1281 -1373 0
-1282 -1374 0
-1283 -1375 0
-1284 -1376 0
-1281 -1501 0
-1282 -1502 0
-1283 -1503 0
-1284 -1504 0
-1281 -2829 0
-1282 -2830 0
-1283 -2831 0
-1284 -2832 0
-1281 -2909 0
-1282 -2910 0
-1283 -2911 0
-1284 -2912 0
-1281 -3801 0
-1282 -3802 0
-1283 -3803 0
-1284 -3804 0
-1285 -1377 0
-1286 -1378 0
-1287 -1379 0
-1288 -1380 0
-1285 -1605 0
-1286 -1606 0
-1287 -1607 0
-1288 -1608 0
-1285 -2665 0
-1286 -2666 0
-1287 -2667 0
-1288 -2668 0
-1285 -3153 0
-1286 -3154 0
-1287 -3155 0
-1288 -3156 0
-1285 -3833 0
-1286 -3834 0
-1287 -3835 0
-1288 -3836 0
-1289 -1369 0
-1290 -1370 0
-1291 -1371 0
-1292 -1372 0
-1289 -1425 0
-1290 -1426 0
-1291 -1427 0
-1292 -1428 0
-1289 -1833 0
-1290 -1834 0
-1291 -1835 0
-1292 -1836 0
-1289 -2605 0
-1290 -2606 0
-1291 -2607 0
-1292 -2608 0
-1289 -2941 0
-1290 -2942 0
-1291 -2943 0
-1292 -2944 0
-1289 -3821 0
-1290 -3822 0
-1291 -3823 0
-1292 -3824 0
-1293 -1365 0
-1294 -1366 0
-1295 -1367 0
-1296 -1368 0
-1293 -1429 0
-1294 -1430 0
-1295 -1431 0
-1296 -1432 0
-1293 -1829 0
-1294 -1830 0
-1295 -1831 0
-1296 -1832 0
-1293 -2529 0
-1294 -2530 0
-1295 -2531 0
-1296 -2532 0
-1293 -2945 0
-1294 -2946 0
-1295 -2947 0
-1296 -2948 0
-1293 -3829 0
-1294 -3830 0
-1295 -3831 0
-1296 -3832 0
-1297 -1349 0
-1298 -1350 0
-1299 -1351 0
-1300 -1352 0
-1297 -1357 0
-1298 -1358 0
-1299 -1359 0
-1300 -1360 0
-1297 -1685 0
-1298 -1686 0
-1299 -1687 0
-1300 -1688 0
-1297 -2497 0
-1298 -2498 0
-1299 -2499 0
-1300 -2500 0
-1297 -3225 0
-1298 -3226 0
-1299 -3227 0
-1300 -3228 0
-1297 -3797 0
-1298 -3798 0
-1299 -3799 0
-1300 -3800 0
-1301 -2781 0
-1302 -2782 0
-1303 -2783 0
-1304 -2784 0
-1301 -3221 0
-1302 -3222 0
-1303 -3223 0
-1304 -3224 0
-1301 -3805 0
-1302 -3806 0
-1303 -3807 0
-1304 -3808 0
-1305 -1361 0
-1306 -1362 0
-1307 -1363 0
-1308 -1364 0
-1305 -1549 0
-1306 -1550 0
-1307 -1551 0
-1308 -1552 0
-1305 -2657 0
-1306 -2658 0
-1307 -2659 0
-1308 -2660 0
-1305 -3189 0
-1306 -3190 0
-1307 -3191 0
-1308 -3192 0
-1305 -3825 0
-1306 -3826 0
-1307 -3827 0
-1308 -3828 0
-1309 -1321 0
-1310 -1322 0
-1311 -1323 0
-1312 -1324 0
-1309 -1609 0
-1310 -1610 0
-1311 -1611 0
-1312 -1612 0
-1309 -2737 0
-1310 -2738 0
-1311 -2739 0
-1312 -2740 0
-1309 -3037 0
-1310 -3038 0
-1311 -3039 0
-1312 -3040 0
-1309 -3817 0
-1310 -3818 0
-1311 -3819 0
-1312 -3820 0
-1313 -1361 0
-1314 -1362 0
-1315 -1363 0
-1316 -1364 0
-1313 -1613 0
-1314 -1614 0
-1315 -1615 0
-1316 -1616 0
-1313 -2733 0
-1314 -2734 0
-1315 -2735 0
-1316 -2736 0
-1313 -3305 0
-1314 -3306 0
-1315 -3307 0
-1316 -3308 0
-1313 -3825 0
-1314 -3826 0
-1315 -3827 0
-1316 -3828 0
-1317 -1709 0
-1318 -1710 0
-1319 -1711 0
-1320 -1712 0
-1317 -2477 0
-1318 -2478 0
-1319 -2479 0
-1320 -2480 0
-1317 -2961 0
-1318 -2962 0
-1319 -2963 0
-1320 -2964 0
-1317 -3813 0
-1318 -3814 0
-1319 -3815 0
-1320 -3816 0
-1321 -1413 0
-1322 -1414 0
-1323 -1415 0
-1324 -1416 0
-1321 -1657 0
-1322 -1658 0
-1323 -1659 0
-1324 -1660 0
-1321 -2485 0
-1322 -2486 0
-1323 -2487 0
-1324 -2488 0
-1321 -3197 0
-1322 -3198 0
-1323 -3199 0
-1324 -3200 0
-1321 -3817 0
-1322 -3818 0
-1323 -3819 0
-1324 -3820 0
-1325 -1389 0
-1326 -1390 0
-1327 -1391 0
-1328 -1392 0
-1325 -1429 0
-1326 -1430 0
-1327 -1431 0
-1328 -1432 0
-1325 -1813 0
-1326 -1814 0
-1327 -1815 0
-1328 -1816 0
-1325 -2493 0
-1326 -2494 0
-1327 -2495 0
-1328 -2496 0
-1325 -3065 0
-1326 -3066 0
-1327 -3067 0
-1328 -3068 0
-1325 -3821 0
-1326 -3822 0
-1327 -3823 0
-1328 -3824 0
-1329 -1417 0
-1330 -1418 0
-1331 -1419 0
-1332 -1420 0
-1329 -1601 0
-1330 -1602 0
-1331 -1603 0
-1332 -1604 0
-1329 -2789 0
-1330 -2790 0
-1331 -2791 0
-1332 -2792 0
-1329 -2973 0
-1330 -2974 0
-1331 -2975 0
-1332 -2976 0
-1329 -3841 0
-1330 -3842 0
-1331 -3843 0
-1332 -3844 0
-1333 -1353 0
-1334 -1354 0
-1335 -1355 0
-1336 -1356 0
-1333 -1797 0
-1334 -1798 0
-1335 -1799 0
-1336 -1800 0
-1333 -2713 0
-1334 -2714 0
-1335 -2715 0
-1336 -2716 0
-1333 -3081 0
-1334 -3082 0
-1335 -3083 0
-1336 -3084 0
-1333 -3797 0
-1334 -3798 0
-1335 -3799 0
-1336 -3800 0
-1337 -1421 0
-1338 -1422 0
-1339 -1423 0
-1340 -1424 0
-1337 -1525 0
-1338 -1526 0
-1339 -1527 0
-1340 -1528 0
-1337 -2709 0
-1338 -2710 0
-1339 -2711 0
-1340 -2712 0
-1337 -2965 0
-1338 -2966 0
-1339 -2967 0
-1340 -2968 0
-1337 -3805 0
-1338 -3806 0
-1339 -3807 0
-1340 -3808 0
-1341 -1373 0
-1342 -1374 0
-1343 -1375 0
-1344 -1376 0
-1341 -1409 0
-1342 -1410 0
-1343 -1411 0
-1344 -1412 0
-1341 -2593 0
-1342 -2594 0
-1343 -2595 0
-1344 -2596 0
-1341 -3061 0
-1342 -3062 0
-1343 -3063 0
-1344 -3064 0
-1341 -3801 0
-1342 -3802 0
-1343 -3803 0
-1344 -3804 0
-1345 -1633 0
-1346 -1634 0
-1347 -1635 0
-1348 -1636 0
-1345 -2817 0
-1346 -2818 0
-1347 -2819 0
-1348 -2820 0
-1345 -2953 0
-1346 -2954 0
-1347 -2955 0
-1348 -2956 0
-1345 -3813 0
-1346 -3814 0
-1347 -3815 0
-1348 -3816 0
-1349 -1357 0
-1350 -1358 0
-1351 -1359 0
-1352 -1360 0
-1349 -1781 0
-1350 -1782 0
-1351 -1783 0
-1352 -1784 0
-1349 -2541 0
-1350 -2542 0
-1351 -2543 0
-1352 -2544 0
-1349 -3201 0
-1350 -3202 0
-1351 -3203 0
-1352 -3204 0
-1349 -3801 0
-1350 -3802 0
-1351 -3803 0
-1352 -3804 0
-1353 -1357 0
-1354 -1358 0
-1355 -1359 0
-1356 -1360 0
-1353 -1529 0
-1354 -1530 0
-1355 -1531 0
-1356 -1532 0
-1353 -2825 0
-1354 -2826 0
-1355 -2827 0
-1356 -2828 0
-1353 -2997 0
-1354 -2998 0
-1355 -2999 0
-1356 -3000 0
-1353 -3797 0
-1354 -3798 0
-1355 -3799 0
-1356 -3800 0
-1357 -1629 0
-1358 -1630 0
-1359 -1631 0
-1360 -1632 0
-1357 -2833 0
-1358 -2834 0
-1359 -2835 0
-1360 -2836 0
-1357 -2857 0
-1358 -2858 0
-1359 -2859 0
-1360 -2860 0
-1357 -3797 0
-1358 -3798 0
-1359 -3799 0
-1360 -3800 0
-1361 -1557 0
-1362 -1558 0
-1363 -1559 0
-1364 -1560 0
-1361 -2601 0
-1362 -2602 0
-1363 -2603 0
-1364 -2604 0
-1361 -2865 0
-1362 -2866 0
-1363 -2867 0
-1364 -2868 0
-1361 -3825 0
-1362 -3826 0
-1363 -3827 0
-1364 -3828 0
-1365 -1773 0
-1366 -1774 0
-1367 -1775 0
-1368 -1776 0
-1365 -2617 0
-1366 -2618 0
-1367 -2619 0
-1368 -2620 0
-1365 -2873 0
-1366 -2874 0
-1367 -2875 0
-1368 -2876 0
-1365 -3829 0
-1366 -3830 0
-1367 -3831 0
-1368 -3832 0
-1369 -1405 0
-1370 -1406 0
-1371 -1407 0
-1372 -1408 0
-1369 -1425 0
-1370 -1426 0
-1371 -1427 0
-1372 -1428 0
-1369 -1653 0
-1370 -1654 0
-1371 -1655 0
-1372 -1656 0
-1369 -2621 0
-1370 -2622 0
-1371 -2623 0
-1372 -2624 0
-1369 -2877 0
-1370 -2878 0
-1371 -2879 0
-1372 -2880 0
-1369 -3821 0
-1370 -3822 0
-1371 -3823 0
-1372 -3824 0
-1373 -1409 0
-1374 -1410 0
-1375 -1411 0
-1376 -1412 0
-1373 -1681 0
-1374 -1682 0
-1375 -1683 0
-1376 -1684 0
-1373 -2821 0
-1374 -2822 0
-1375 -2823 0
-1376 -2824 0
-1373 -2889 0
-1374 -2890 0
-1375 -2891 0
-1376 -2892 0
-1373 -3801 0
-1374 -3802 0
-1375 -3803 0
-1376 -3804 0
-1377 -1597 0
-1378 -1598 0
-1379 -1599 0
-1380 -1600 0
-1377 -2521 0
-1378 -2522 0
-1379 -2523 0
-1380 -2524 0
-1377 -2897 0
-1378 -2898 0
-1379 -2899 0
-1380 -2900 0
-1377 -3833 0
-1378 -3834 0
-1379 -3835 0
-1380 -3836 0
-1381 -1485 0
-1382 -1486 0
-1383 -1487 0
-1384 -1488 0
-1381 -2701 0
-1382 -2702 0
-1383 -2703 0
-1384 -2704 0
-1381 -3185 0
-1382 -3186 0
-1383 -3187 0
-1384 -3188 0
-1381 -3841 0
-1382 -3842 0
-1383 -3843 0
-1384 -3844 0
-1385 -1401 0
-1386 -1402 0
-1387 -1403 0
-1388 -1404 0
-1385 -1665 0
-1386 -1666 0
-1387 -1667 0
-1388 -1668 0
-1385 -2669 0
-1386 -2670 0
-1387 -2671 0
-1388 -2672 0
-1385 -3157 0
-1386 -3158 0
-1387 -3159 0
-1388 -3160 0
-1385 -3809 0
-1386 -3810 0
-1387 -3811 0
-1388 -3812 0
-1389 -1741 0
-1390 -1742 0
-1391 -1743 0
-1392 -1744 0
-1389 -2729 0
-1390 -2730 0
-1391 -2731 0
-1392 -2732 0
-1389 -3045 0
-1390 -3046 0
-1391 -3047 0
-1392 -3048 0
-1389 -3821 0
-1390 -3822 0
-1391 -3823 0
-1392 -3824 0
-1393 -1405 0
-1394 -1406 0
-1395 -1407 0
-1396 -1408 0
-1393 -2661 0
-1394 -2662 0
-1395 -2663 0
-1396 -2664 0
-1393 -3041 0
-1394 -3042 0
-1395 -3043 0
-1396 -3044 0
-1393 -3829 0
-1394 -3830 0
-1395 -3831 0
-1396 -3832 0
-1397 -1693 0
-1398 -1694 0
-1399 -1695 0
-1400 -1696 0
-1397 -2509 0
-1398 -2510 0
-1399 -2511 0
-1400 -2512 0
-1397 -3281 0
-1398 -3282 0
-1399 -3283 0
-1400 -3284 0
-1397 -3805 0
-1398 -3806 0
-1399 -3807 0
-1400 -3808 0
-1401 -1593 0
-1402 -1594 0
-1403 -1595 0
-1404 -1596 0
-1401 -2525 0
-1402 -2526 0
-1403 -2527 0
-1404 -2528 0
-1401 -3289 0
-1402 -3290 0
-1403 -3291 0
-1404 -3292 0
-1401 -3809 0
-1402 -3810 0
-1403 -3811 0
-1404 -3812 0
-1405 -1425 0
-1406 -1426 0
-1407 -1427 0
-1408 -1428 0
-1405 -1701 0
-1406 -1702 0
-1407 -1703 0
-1408 -1704 0
-1405 -2517 0
-1406 -2518 0
-1407 -2519 0
-1408 -2520 0
-1405 -3229 0
-1406 -3230 0
-1407 -3231 0
-1408 -3232 0
-1405 -3829 0
-1406 -3830 0
-1407 -3831 0
-1408 -3832 0
-1409 -1717 0
-1410 -1718 0
-1411 -1719 0
-1412 -1720 0
-1409 -2533 0
-1410 -2534 0
-1411 -2535 0
-1412 -2536 0
-1409 -3205 0
-1410 -3206 0
-1411 -3207 0
-1412 -3208 0
-1409 -3797 0
-1410 -3798 0
-1411 -3799 0
-1412 -3800 0
-1413 -1437 0
-1414 -1438 0
-1415 -1439 0
-1416 -1440 0
-1413 -2653 0
-1414 -2654 0
-1415 -2655 0
-1416 -2656 0
-1413 -3193 0
-1414 -3194 0
-1415 -3195 0
-1416 -3196 0
-1413 -3817 0
-1414 -3818 0
-1415 -3819 0
-1416 -3820 0
-1417 -2745 0
-1418 -2746 0
-1419 -2747 0
-1420 -2748 0
-1417 -3049 0
-1418 -3050 0
-1419 -3051 0
-1420 -3052 0
-1417 -3837 0
-1418 -3838 0
-1419 -3839 0
-1420 -3840 0
-1421 -1481 0
-1422 -1482 0
-1423 -1483 0
-1424 -1484 0
-1421 -2773 0
-1422 -2774 0
-1423 -2775 0
-1424 -2776 0
-1421 -3309 0
-1422 -3310 0
-1423 -3311 0
-1424 -3312 0
-1421 -3813 0
-1422 -3814 0
-1423 -3815 0
-1424 -3816 0
-1425 -1449 0
-1426 -1450 0
-1427 -1451 0
-1428 -1452 0
-1425 -2753 0
-1426 -2754 0
-1427 -2755 0
-1428 -2756 0
-1425 -3313 0
-1426 -3314 0
-1427 -3315 0
-1428 -3316 0
-1425 -3829 0
-1426 -3830 0
-1427 -3831 0
-1428 -3832 0
-1429 -1461 0
-1430 -1462 0
-1431 -1463 0
-1432 -1464 0
-1429 -2681 0
-1430 -2682 0
-1431 -2683 0
-1432 -2684 0
-1429 -3165 0
-1430 -3166 0
-1431 -3167 0
-1432 -3168 0
-1429 -3821 0
-1430 -3822 0
-1431 -3823 0
-1432 -3824 0
-1433 -1517 0
-1434 -1518 0
-1435 -1519 0
-1436 -1520 0
-1433 -2757 0
-1434 -2758 0
-1435 -2759 0
-1436 -2760 0
-1433 -2977 0
-1434 -2978 0
-1435 -2979 0
-1436 -2980 0
-1433 -3805 0
-1434 -3806 0
-1435 -3807 0
-1436 -3808 0
-1437 -1489 0
-1438 -1490 0
-1439 -1491 0
-1440 -1492 0
-1437 -1613 0
-1438 -1614 0
-1439 -1615 0
-1440 -1616 0
-1437 -1865 0
-1438 -1866 0
-1439 -1867 0
-1440 -1868 0
-1437 -1873 0
-1438 -1874 0
-1439 -1875 0
-1440 -1876 0
-1437 -1881 0
-1438 -1882 0
-1439 -1883 0
-1440 -1884 0
-1437 -3333 0
-1438 -3334 0
-1439 -3335 0
-1440 -3336 0
-1437 -3797 0
-1438 -3798 0
-1439 -3799 0
-1440 -3800 0
-1441 -1521 0
-1442 -1522 0
-1443 -1523 0
-1444 -1524 0
-1441 -1605 0
-1442 -1606 0
-1443 -1607 0
-1444 -1608 0
-1441 -1861 0
-1442 -1862 0
-1443 -1863 0
-1444 -1864 0
-1441 -1869 0
-1442 -1870 0
-1443 -1871 0
-1444 -1872 0
-1441 -1877 0
-1442 -1878 0
-1443 -1879 0
-1444 -1880 0
-1441 -3345 0
-1442 -3346 0
-1443 -3347 0
-1444 -3348 0
-1441 -3801 0
-1442 -3802 0
-1443 -3803 0
-1444 -3804 0
-1445 -1609 0
-1446 -1610 0
-1447 -1611 0
-1448 -1612 0
-1445 -1753 0
-1446 -1754 0
-1447 -1755 0
-1448 -1756 0
-1445 -1817 0
-1446 -1818 0
-1447 -1819 0
-1448 -1820 0
-1445 -1825 0
-1446 -1826 0
-1447 -1827 0
-1448 -1828 0
-1445 -1897 0
-1446 -1898 0
-1447 -1899 0
-1448 -1900 0
-1445 -3381 0
-1446 -3382 0
-1447 -3383 0
-1448 -3384 0
-1445 -3805 0
-1446 -3806 0
-1447 -3807 0
-1448 -3808 0
-1449 -1517 0
-1450 -1518 0
-1451 -1519 0
-1452 -1520 0
-1449 -1569 0
-1450 -1570 0
-1451 -1571 0
-1452 -1572 0
-1449 -1613 0
-1450 -1614 0
-1451 -1615 0
-1452 -1616 0
-1449 -1853 0
-1450 -1854 0
-1451 -1855 0
-1452 -1856 0
-1449 -1901 0
-1450 -1902 0
-1451 -1903 0
-1452 -1904 0
-1449 -3385 0
-1450 -3386 0
-1451 -3387 0
-1452 -3388 0
-1449 -3797 0
-1450 -3798 0
-1451 -3799 0
-1452 -3800 0
-1453 -1721 0
-1454 -1722 0
-1455 -1723 0
-1456 -1724 0
-1453 -1821 0
-1454 -1822 0
-1455 -1823 0
-1456 -1824 0
-1453 -1905 0
-1454 -1906 0
-1455 -1907 0
-1456 -1908 0
-1453 -3317 0
-1454 -3318 0
-1455 -3319 0
-1456 -3320 0
-1453 -3809 0
-1454 -3810 0
-1455 -3811 0
-1456 -3812 0
-1457 -1665 0
-1458 -1666 0
-1459 -1667 0
-1460 -1668 0
-1457 -1729 0
-1458 -1730 0
-1459 -1731 0
-1460 -1732 0
-1457 -1805 0
-1458 -1806 0
-1459 -1807 0
-1460 -1808 0
-1457 -1857 0
-1458 -1858 0
-1459 -1859 0
-1460 -1860 0
-1457 -1885 0
-1458 -1886 0
-1459 -1887 0
-1460 -1888 0
-1457 -3361 0
-1458 -3362 0
-1459 -3363 0
-1460 -3364 0
-1457 -3813 0
-1458 -3814 0
-1459 -3815 0
-1460 -3816 0
-1461 -1481 0
-1462 -1482 0
-1463 -1483 0
-1464 -1484 0
-1461 -1605 0
-1462 -1606 0
-1463 -1607 0
-1464 -1608 0
-1461 -1649 0
-1462 -1650 0
-1463 -1651 0
-1464 -1652 0
-1461 -1725 0
-1462 -1726 0
-1463 -1727 0
-1464 -1728 0
-1461 -1889 0
-1462 -1890 0
-1463 -1891 0
-1464 -1892 0
-1461 -3417 0
-1462 -3418 0
-1463 -3419 0
-1464 -3420 0
-1461 -3801 0
-1462 -3802 0
-1463 -3803 0
-1464 -3804 0
-1465 -1669 0
-1466 -1670 0
-1467 -1671 0
-1468 -1672 0
-1465 -1697 0
-1466 -1698 0
-1467 -1699 0
-1468 -1700 0
-1465 -1785 0
-1466 -1786 0
-1467 -1787 0
-1468 -1788 0
-1465 -1809 0
-1466 -1810 0
-1467 -1811 0
-1468 -1812 0
-1465 -1893 0
-1466 -1894 0
-1467 -1895 0
-1468 -1896 0
-1465 -3321 0
-1466 -3322 0
-1467 -3323 0
-1468 -3324 0
-1465 -3817 0
-1466 -3818 0
-1467 -3819 0
-1468 -3820 0
-1469 -1693 0
-1470 -1694 0
-1471 -1695 0
-1472 -1696 0
-1469 -1813 0
-1470 -1814 0
-1471 -1815 0
-1472 -1816 0
-1469 -1841 0
-1470 -1842 0
-1471 -1843 0
-1472 -1844 0
-1469 -1849 0
-1470 -1850 0
-1471 -1851 0
-1472 -1852 0
-1469 -1953 0
-1470 -1954 0
-1471 -1955 0
-1472 -1956 0
-1469 -3521 0
-1470 -3522 0
-1471 -3523 0
-1472 -3524 0
-1469 -3825 0
-1470 -3826 0
-1471 -3827 0
-1472 -3828 0
-1473 -1493 0
-1474 -1494 0
-1475 -1495 0
-1476 -1496 0
-1473 -1689 0
-1474 -1690 0
-1475 -1691 0
-1476 -1692 0
-1473 -1821 0
-1474 -1822 0
-1475 -1823 0
-1476 -1824 0
-1473 -1957 0
-1474 -1958 0
-1475 -1959 0
-1476 -1960 0
-1473 -3525 0
-1474 -3526 0
-1475 -3527 0
-1476 -3528 0
-1473 -3817 0
-1474 -3818 0
-1475 -3819 0
-1476 -3820 0
-1477 -1501 0
-1478 -1502 0
-1479 -1503 0
-1480 -1504 0
-1477 -1565 0
-1478 -1566 0
-1479 -1567 0
-1480 -1568 0
-1477 -1617 0
-1478 -1618 0
-1479 -1619 0
-1480 -1620 0
-1477 -1777 0
-1478 -1778 0
-1479 -1779 0
-1480 -1780 0
-1477 -1941 0
-1478 -1942 0
-1479 -1943 0
-1480 -1944 0
-1477 -3337 0
-1478 -3338 0
-1479 -3339 0
-1480 -3340 0
-1477 -3821 0
-1478 -3822 0
-1479 -3823 0
-1480 -3824 0
-1481 -1521 0
-1482 -1522 0
-1483 -1523 0
-1484 -1524 0
-1481 -1725 0
-1482 -1726 0
-1483 -1727 0
-1484 -1728 0
-1481 -1737 0
-1482 -1738 0
-1483 -1739 0
-1484 -1740 0
-1481 -1961 0
-1482 -1962 0
-1483 -1963 0
-1484 -1964 0
-1481 -3529 0
-1482 -3530 0
-1483 -3531 0
-1484 -3532 0
-1481 -3801 0
-1482 -3802 0
-1483 -3803 0
-1484 -3804 0
-1485 -1549 0
-1486 -1550 0
-1487 -1551 0
-1488 -1552 0
-1485 -1621 0
-1486 -1622 0
-1487 -1623 0
-1488 -1624 0
-1485 -1757 0
-1486 -1758 0
-1487 -1759 0
-1488 -1760 0
-1485 -1817 0
-1486 -1818 0
-1487 -1819 0
-1488 -1820 0
-1485 -1965 0
-1486 -1966 0
-1487 -1967 0
-1488 -1968 0
-1485 -3533 0
-1486 -3534 0
-1487 -3535 0
-1488 -3536 0
-1485 -3805 0
-1486 -3806 0
-1487 -3807 0
-1488 -3808 0
-1489 -1517 0
-1490 -1518 0
-1491 -1519 0
-1492 -1520 0
-1489 -1761 0
-1490 -1762 0
-1491 -1763 0
-1492 -1764 0
-1489 -1865 0
-1490 -1866 0
-1491 -1867 0
-1492 -1868 0
-1489 -1969 0
-1490 -1970 0
-1491 -1971 0
-1492 -1972 0
-1489 -3537 0
-1490 -3538 0
-1491 -3539 0
-1492 -3540 0
-1489 -3797 0
-1490 -3798 0
-1491 -3799 0
-1492 -3800 0
-1493 -1653 0
-1494 -1654 0
-1495 -1655 0
-1496 -1656 0
-1493 -1689 0
-1494 -1690 0
-1495 -1691 0
-1496 -1692 0
-1493 -1821 0
-1494 -1822 0
-1495 -1823 0
-1496 -1824 0
-1493 -1973 0
-1494 -1974 0
-1495 -1975 0
-1496 -1976 0
-1493 -3497 0
-1494 -3498 0
-1495 -3499 0
-1496 -3500 0
-1493 -3809 0
-1494 -3810 0
-1495 -3811 0
-1496 -3812 0
-1497 -1529 0
-1498 -1530 0
-1499 -1531 0
-1500 -1532 0
-1497 -1589 0
-1498 -1590 0
-1499 -1591 0
-1500 -1592 0
-1497 -1677 0
-1498 -1678 0
-1499 -1679 0
-1500 -1680 0
-1497 -1713 0
-1498 -1714 0
-1499 -1715 0
-1500 -1716 0
-1497 -1921 0
-1498 -1922 0
-1499 -1923 0
-1500 -1924 0
-1497 -3325 0
-1498 -3326 0
-1499 -3327 0
-1500 -3328 0
-1497 -3829 0
-1498 -3830 0
-1499 -3831 0
-1500 -3832 0
-1501 -1645 0
-1502 -1646 0
-1503 -1647 0
-1504 -1648 0
-1501 -1673 0
-1502 -1674 0
-1503 -1675 0
-1504 -1676 0
-1501 -1777 0
-1502 -1778 0
-1503 -1779 0
-1504 -1780 0
-1501 -1977 0
-1502 -1978 0
-1503 -1979 0
-1504 -1980 0
-1501 -3329 0
-1502 -3330 0
-1503 -3331 0
-1504 -3332 0
-1501 -3821 0
-1502 -3822 0
-1503 -3823 0
-1504 -3824 0
-1505 -1601 0
-1506 -1602 0
-1507 -1603 0
-1508 -1604 0
-1505 -1645 0
-1506 -1646 0
-1507 -1647 0
-1508 -1648 0
-1505 -1673 0
-1506 -1674 0
-1507 -1675 0
-1508 -1676 0
-1505 -1733 0
-1506 -1734 0
-1507 -1735 0
-1508 -1736 0
-1505 -1909 0
-1506 -1910 0
-1507 -1911 0
-1508 -1912 0
-1505 -3429 0
-1506 -3430 0
-1507 -3431 0
-1508 -3432 0
-1505 -3829 0
-1506 -3830 0
-1507 -3831 0
-1508 -3832 0
-1509 -1701 0
-1510 -1702 0
-1511 -1703 0
-1512 -1704 0
-1509 -1709 0
-1510 -1710 0
-1511 -1711 0
-1512 -1712 0
-1509 -1769 0
-1510 -1770 0
-1511 -1771 0
-1512 -1772 0
-1509 -1797 0
-1510 -1798 0
-1511 -1799 0
-1512 -1800 0
-1509 -1913 0
-1510 -1914 0
-1511 -1915 0
-1512 -1916 0
-1509 -3461 0
-1510 -3462 0
-1511 -3463 0
-1512 -3464 0
-1509 -3833 0
-1510 -3834 0
-1511 -3835 0
-1512 -3836 0
-1513 -1525 0
-1514 -1526 0
-1515 -1527 0
-1516 -1528 0
-1513 -1697 0
-1514 -1698 0
-1515 -1699 0
-1516 -1700 0
-1513 -1705 0
-1514 -1706 0
-1515 -1707 0
-1516 -1708 0
-1513 -1809 0
-1514 -1810 0
-1515 -1811 0
-1516 -1812 0
-1513 -1917 0
-1514 -1918 0
-1515 -1919 0
-1516 -1920 0
-1513 -3465 0
-1514 -3466 0
-1515 -3467 0
-1516 -3468 0
-1513 -3809 0
-1514 -3810 0
-1515 -3811 0
-1516 -3812 0
-1517 -1761 0
-1518 -1762 0
-1519 -1763 0
-1520 -1764 0
-1517 -1853 0
-1518 -1854 0
-1519 -1855 0
-1520 -1856 0
-1517 -1925 0
-1518 -1926 0
-1519 -1927 0
-1520 -1928 0
-1517 -3585 0
-1518 -3586 0
-1519 -3587 0
-1520 -3588 0
-1517 -3797 0
-1518 -3798 0
-1519 -3799 0
-1520 -3800 0
-1521 -1737 0
-1522 -1738 0
-1523 -1739 0
-1524 -1740 0
-1521 -1869 0
-1522 -1870 0
-1523 -1871 0
-1524 -1872 0
-1521 -1933 0
-1522 -1934 0
-1523 -1935 0
-1524 -1936 0
-1521 -3593 0
-1522 -3594 0
-1523 -3595 0
-1524 -3596 0
-1521 -3801 0
-1522 -3802 0
-1523 -3803 0
-1524 -3804 0
-1525 -1585 0
-1526 -1586 0
-1527 -1587 0
-1528 -1588 0
-1525 -1705 0
-1526 -1706 0
-1527 -1707 0
-1528 -1708 0
-1525 -1809 0
-1526 -1810 0
-1527 -1811 0
-1528 -1812 0
-1525 -1937 0
-1526 -1938 0
-1527 -1939 0
-1528 -1940 0
-1525 -3569 0
-1526 -3570 0
-1527 -3571 0
-1528 -3572 0
-1525 -3817 0
-1526 -3818 0
-1527 -3819 0
-1528 -3820 0
-1529 -1561 0
-1530 -1562 0
-1531 -1563 0
-1532 -1564 0
-1529 -1713 0
-1530 -1714 0
-1531 -1715 0
-1532 -1716 0
-1529 -1945 0
-1530 -1946 0
-1531 -1947 0
-1532 -1948 0
-1529 -3341 0
-1530 -3342 0
-1531 -3343 0
-1532 -3344 0
-1529 -3829 0
-1530 -3830 0
-1531 -3831 0
-1532 -3832 0
-1533 -1577 0
-1534 -1578 0
-1535 -1579 0
-1536 -1580 0
-1533 -1749 0
-1534 -1750 0
-1535 -1751 0
-1536 -1752 0
-1533 -1993 0
-1534 -1994 0
-1535 -1995 0
-1536 -1996 0
-1533 -3545 0
-1534 -3546 0
-1535 -3547 0
-1536 -3548 0
-1533 -3837 0
-1534 -3838 0
-1535 -3839 0
-1536 -3840 0
-1537 -1573 0
-1538 -1574 0
-1539 -1575 0
-1540 -1576 0
-1537 -1633 0
-1538 -1634 0
-1539 -1635 0
-1540 -1636 0
-1537 -1741 0
-1538 -1742 0
-1539 -1743 0
-1540 -1744 0
-1537 -1745 0
-1538 -1746 0
-1539 -1747 0
-1540 -1748 0
-1537 -2101 0
-1538 -2102 0
-1539 -2103 0
-1540 -2104 0
-1537 -3505 0
-1538 -3506 0
-1539 -3507 0
-1540 -3508 0
-1537 -3841 0
-1538 -3842 0
-1539 -3843 0
-1540 -3844 0
-1541 -1581 0
-1542 -1582 0
-1543 -1583 0
-1544 -1584 0
-1541 -1629 0
-1542 -1630 0
-1543 -1631 0
-1544 -1632 0
-1541 -2077 0
-1542 -2078 0
-1543 -2079 0
-1544 -2080 0
-1541 -3389 0
-1542 -3390 0
-1543 -3391 0
-1544 -3392 0
-1541 -3805 0
-1542 -3806 0
-1543 -3807 0
-1544 -3808 0
-1545 -1625 0
-1546 -1626 0
-1547 -1627 0
-1548 -1628 0
-1545 -1685 0
-1546 -1686 0
-1547 -1687 0
-1548 -1688 0
-1545 -1741 0
-1546 -1742 0
-1547 -1743 0
-1548 -1744 0
-1545 -1793 0
-1546 -1794 0
-1547 -1795 0
-1548 -1796 0
-1545 -1981 0
-1546 -1982 0
-1547 -1983 0
-1548 -1984 0
-1545 -3441 0
-1546 -3442 0
-1547 -3443 0
-1548 -3444 0
-1545 -3841 0
-1546 -3842 0
-1547 -3843 0
-1548 -3844 0
-1549 -1609 0
-1550 -1610 0
-1551 -1611 0
-1552 -1612 0
-1549 -1621 0
-1550 -1622 0
-1551 -1623 0
-1552 -1624 0
-1549 -1681 0
-1550 -1682 0
-1551 -1683 0
-1552 -1684 0
-1549 -2029 0
-1550 -2030 0
-1551 -2031 0
-1552 -2032 0
-1549 -3757 0
-1550 -3758 0
-1551 -3759 0
-1552 -3760 0
-1549 -3805 0
-1550 -3806 0
-1551 -3807 0
-1552 -3808 0
-1553 -1657 0
-1554 -1658 0
-1555 -1659 0
-1556 -1660 0
-1553 -1765 0
-1554 -1766 0
-1555 -1767 0
-1556 -1768 0
-1553 -1781 0
-1554 -1782 0
-1555 -1783 0
-1556 -1784 0
-1553 -1845 0
-1554 -1846 0
-1555 -1847 0
-1556 -1848 0
-1553 -2105 0
-1554 -2106 0
-1555 -2107 0
-1556 -2108 0
-1553 -3433 0
-1554 -3434 0
-1555 -3435 0
-1556 -3436 0
-1553 -3825 0
-1554 -3826 0
-1555 -3827 0
-1556 -3828 0
-1557 -1585 0
-1558 -1586 0
-1559 -1587 0
-1560 -1588 0
-1557 -1669 0
-1558 -1670 0
-1559 -1671 0
-1560 -1672 0
-1557 -1705 0
-1558 -1706 0
-1559 -1707 0
-1560 -1708 0
-1557 -1785 0
-1558 -1786 0
-1559 -1787 0
-1560 -1788 0
-1557 -2045 0
-1558 -2046 0
-1559 -2047 0
-1560 -2048 0
-1557 -3761 0
-1558 -3762 0
-1559 -3763 0
-1560 -3764 0
-1557 -3809 0
-1558 -3810 0
-1559 -3811 0
-1560 -3812 0
-1561 -1713 0
-1562 -1714 0
-1563 -1715 0
-1564 -1716 0
-1561 -2109 0
-1562 -2110 0
-1563 -2111 0
-1564 -2112 0
-1561 -3473 0
-1562 -3474 0
-1563 -3475 0
-1564 -3476 0
-1561 -3821 0
-1562 -3822 0
-1563 -3823 0
-1564 -3824 0
-1565 -1617 0
-1566 -1618 0
-1567 -1619 0
-1568 -1620 0
-1565 -1733 0
-1566 -1734 0
-1567 -1735 0
-1568 -1736 0
-1565 -1777 0
-1566 -1778 0
-1567 -1779 0
-1568 -1780 0
-1565 -2037 0
-1566 -2038 0
-1567 -2039 0
-1568 -2040 0
-1565 -3765 0
-1566 -3766 0
-1567 -3767 0
-1568 -3768 0
-1565 -3829 0
-1566 -3830 0
-1567 -3831 0
-1568 -3832 0
-1569 -1613 0
-1570 -1614 0
-1571 -1615 0
-1572 -1616 0
-1569 -1853 0
-1570 -1854 0
-1571 -1855 0
-1572 -1856 0
-1569 -1873 0
-1570 -1874 0
-1571 -1875 0
-1572 -1876 0
-1569 -2113 0
-1570 -2114 0
-1571 -2115 0
-1572 -2116 0
-1569 -3701 0
-1570 -3702 0
-1571 -3703 0
-1572 -3704 0
-1569 -3801 0
-1570 -3802 0
-1571 -3803 0
-1572 -3804 0
-1573 -1633 0
-1574 -1634 0
-1575 -1635 0
-1576 -1636 0
-1573 -1745 0
-1574 -1746 0
-1575 -1747 0
-1576 -1748 0
-1573 -1829 0
-1574 -1830 0
-1575 -1831 0
-1576 -1832 0
-1573 -2081 0
-1574 -2082 0
-1575 -2083 0
-1576 -2084 0
-1573 -3393 0
-1574 -3394 0
-1575 -3395 0
-1576 -3396 0
-1573 -3837 0
-1574 -3838 0
-1575 -3839 0
-1576 -3840 0
-1577 -1749 0
-1578 -1750 0
-1579 -1751 0
-1580 -1752 0
-1577 -1833 0
-1578 -1834 0
-1579 -1835 0
-1580 -1836 0
-1577 -2085 0
-1578 -2086 0
-1579 -2087 0
-1580 -2088 0
-1577 -3397 0
-1578 -3398 0
-1579 -3399 0
-1580 -3400 0
-1577 -3841 0
-1578 -3842 0
-1579 -3843 0
-1580 -3844 0
-1581 -1629 0
-1582 -1630 0
-1583 -1631 0
-1584 -1632 0
-1581 -1665 0
-1582 -1666 0
-1583 -1667 0
-1584 -1668 0
-1581 -1997 0
-1582 -1998 0
-1583 -1999 0
-1584 -2000 0
-1581 -3677 0
-1582 -3678 0
-1583 -3679 0
-1584 -3680 0
-1581 -3813 0
-1582 -3814 0
-1583 -3815 0
-1584 -3816 0
-1585 -1669 0
-1586 -1670 0
-1587 -1671 0
-1588 -1672 0
-1585 -1705 0
-1586 -1706 0
-1587 -1707 0
-1588 -1708 0
-1585 -2117 0
-1586 -2118 0
-1587 -2119 0
-1588 -2120 0
-1585 -3449 0
-1586 -3450 0
-1587 -3451 0
-1588 -3452 0
-1585 -3817 0
-1586 -3818 0
-1587 -3819 0
-1588 -3820 0
-1589 -1677 0
-1590 -1678 0
-1591 -1679 0
-1592 -1680 0
-1589 -1713 0
-1590 -1714 0
-1591 -1715 0
-1592 -1716 0
-1589 -1801 0
-1590 -1802 0
-1591 -1803 0
-1592 -1804 0
-1589 -2013 0
-1590 -2014 0
-1591 -2015 0
-1592 -2016 0
-1589 -3685 0
-1590 -3686 0
-1591 -3687 0
-1592 -3688 0
-1589 -3821 0
-1590 -3822 0
-1591 -3823 0
-1592 -3824 0
-1593 -1641 0
-1594 -1642 0
-1595 -1643 0
-1596 -1644 0
-1593 -1693 0
-1594 -1694 0
-1595 -1695 0
-1596 -1696 0
-1593 -1717 0
-1594 -1718 0
-1595 -1719 0
-1596 -1720 0
-1593 -1773 0
-1594 -1774 0
-1595 -1775 0
-1596 -1776 0
-1593 -2121 0
-1594 -2122 0
-1595 -2123 0
-1596 -2124 0
-1593 -3721 0
-1594 -3722 0
-1595 -3723 0
-1596 -3724 0
-1593 -3825 0
-1594 -3826 0
-1595 -3827 0
-1596 -3828 0
-1597 -1653 0
-1598 -1654 0
-1599 -1655 0
-1600 -1656 0
-1597 -1689 0
-1598 -1690 0
-1599 -1691 0
-1600 -1692 0
-1597 -1721 0
-1598 -1722 0
-1599 -1723 0
-1600 -1724 0
-1597 -2005 0
-1598 -2006 0
-1599 -2007 0
-1600 -2008 0
-1597 -3681 0
-1598 -3682 0
-1599 -3683 0
-1600 -3684 0
-1597 -3817 0
-1598 -3818 0
-1599 -3819 0
-1600 -3820 0
-1601 -1617 0
-1602 -1618 0
-1603 -1619 0
-1604 -1620 0
-1601 -1673 0
-1602 -1674 0
-1603 -1675 0
-1604 -1676 0
-1601 -1733 0
-1602 -1734 0
-1603 -1735 0
-1604 -1736 0
-1601 -2125 0
-1602 -2126 0
-1603 -2127 0
-1604 -2128 0
-1601 -3649 0
-1602 -3650 0
-1603 -3651 0
-1604 -3652 0
-1601 -3821 0
-1602 -3822 0
-1603 -3823 0
-1604 -3824 0
-1605 -1649 0
-1606 -1650 0
-1607 -1651 0
-1608 -1652 0
-1605 -1861 0
-1606 -1862 0
-1607 -1863 0
-1608 -1864 0
-1605 -2061 0
-1606 -2062 0
-1607 -2063 0
-1608 -2064 0
-1605 -3709 0
-1606 -3710 0
-1607 -3711 0
-1608 -3712 0
-1605 -3801 0
-1606 -3802 0
-1607 -3803 0
-1608 -3804 0
-1609 -1681 0
-1610 -1682 0
-1611 -1683 0
-1612 -1684 0
-1609 -1825 0
-1610 -1826 0
-1611 -1827 0
-1612 -1828 0
-1609 -2129 0
-1610 -2130 0
-1611 -2131 0
-1612 -2132 0
-1609 -3377 0
-1610 -3378 0
-1611 -3379 0
-1612 -3380 0
-1609 -3805 0
-1610 -3806 0
-1611 -3807 0
-1612 -3808 0
-1613 -1873 0
-1614 -1874 0
-1615 -1875 0
-1616 -1876 0
-1613 -2053 0
-1614 -2054 0
-1615 -2055 0
-1616 -2056 0
-1613 -3769 0
-1614 -3770 0
-1615 -3771 0
-1616 -3772 0
-1613 -3797 0
-1614 -3798 0
-1615 -3799 0
-1616 -3800 0
-1617 -1733 0
-1618 -1734 0
-1619 -1735 0
-1620 -1736 0
-1617 -2141 0
-1618 -2142 0
-1619 -2143 0
-1620 -2144 0
-1617 -3729 0
-1618 -3730 0
-1619 -3731 0
-1620 -3732 0
-1617 -3821 0
-1618 -3822 0
-1619 -3823 0
-1620 -3824 0
-1621 -1681 0
-1622 -1682 0
-1623 -1683 0
-1624 -1684 0
-1621 -1757 0
-1622 -1758 0
-1623 -1759 0
-1624 -1760 0
-1621 -1989 0
-1622 -1990 0
-1623 -1991 0
-1624 -1992 0
-1621 -3349 0
-1622 -3350 0
-1623 -3351 0
-1624 -3352 0
-1621 -3813 0
-1622 -3814 0
-1623 -3815 0
-1624 -3816 0
-1625 -1685 0
-1626 -1686 0
-1627 -1687 0
-1628 -1688 0
-1625 -1793 0
-1626 -1794 0
-1627 -1795 0
-1628 -1796 0
-1625 -1829 0
-1626 -1830 0
-1627 -1831 0
-1628 -1832 0
-1625 -2025 0
-1626 -2026 0
-1627 -2027 0
-1628 -2028 0
-1625 -3357 0
-1626 -3358 0
-1627 -3359 0
-1628 -3360 0
-1625 -3837 0
-1626 -3838 0
-1627 -3839 0
-1628 -3840 0
-1629 -1665 0
-1630 -1666 0
-1631 -1667 0
-1632 -1668 0
-1629 -1857 0
-1630 -1858 0
-1631 -1859 0
-1632 -1860 0
-1629 -2145 0
-1630 -2146 0
-1631 -2147 0
-1632 -2148 0
-1629 -3365 0
-1630 -3366 0
-1631 -3367 0
-1632 -3368 0
-1629 -3805 0
-1630 -3806 0
-1631 -3807 0
-1632 -3808 0
-1633 -1685 0
-1634 -1686 0
-1635 -1687 0
-1636 -1688 0
-1633 -1741 0
-1634 -1742 0
-1635 -1743 0
-1636 -1744 0
-1633 -2149 0
-1634 -2150 0
-1635 -2151 0
-1636 -2152 0
-1633 -3369 0
-1634 -3370 0
-1635 -3371 0
-1636 -3372 0
-1633 -3837 0
-1634 -3838 0
-1635 -3839 0
-1636 -3840 0
-1637 -1789 0
-1638 -1790 0
-1639 -1791 0
-1640 -1792 0
-1637 -1985 0
-1638 -1986 0
-1639 -1987 0
-1640 -1988 0
-1637 -3573 0
-1638 -3574 0
-1639 -3575 0
-1640 -3576 0
-1637 -3837 0
-1638 -3838 0
-1639 -3839 0
-1640 -3840 0
-1641 -1717 0
-1642 -1718 0
-1643 -1719 0
-1644 -1720 0
-1641 -1773 0
-1642 -1774 0
-1643 -1775 0
-1644 -1776 0
-1641 -1837 0
-1642 -1838 0
-1643 -1839 0
-1644 -1840 0
-1641 -2001 0
-1642 -2002 0
-1643 -2003 0
-1644 -2004 0
-1641 -3421 0
-1642 -3422 0
-1643 -3423 0
-1644 -3424 0
-1641 -3833 0
-1642 -3834 0
-1643 -3835 0
-1644 -3836 0
-1645 -1673 0
-1646 -1674 0
-1647 -1675 0
-1648 -1676 0
-1645 -1777 0
-1646 -1778 0
-1647 -1779 0
-1648 -1780 0
-1645 -2009 0
-1646 -2010 0
-1647 -2011 0
-1648 -2012 0
-1645 -3557 0
-1646 -3558 0
-1647 -3559 0
-1648 -3560 0
-1645 -3829 0
-1646 -3830 0
-1647 -3831 0
-1648 -3832 0
-1649 -1725 0
-1650 -1726 0
-1651 -1727 0
-1652 -1728 0
-1649 -1861 0
-1650 -1862 0
-1651 -1863 0
-1652 -1864 0
-1649 -2017 0
-1650 -2018 0
-1651 -2019 0
-1652 -2020 0
-1649 -3657 0
-1650 -3658 0
-1651 -3659 0
-1652 -3660 0
-1649 -3797 0
-1650 -3798 0
-1651 -3799 0
-1652 -3800 0
-1653 -1689 0
-1654 -1690 0
-1655 -1691 0
-1656 -1692 0
-1653 -2033 0
-1654 -2034 0
-1655 -2035 0
-1656 -2036 0
-1653 -3549 0
-1654 -3550 0
-1655 -3551 0
-1656 -3552 0
-1653 -3809 0
-1654 -3810 0
-1655 -3811 0
-1656 -3812 0
-1657 -1709 0
-1658 -1710 0
-1659 -1711 0
-1660 -1712 0
-1657 -1781 0
-1658 -1782 0
-1659 -1783 0
-1660 -1784 0
-1657 -1845 0
-1658 -1846 0
-1659 -1847 0
-1660 -1848 0
-1657 -2041 0
-1658 -2042 0
-1659 -2043 0
-1660 -2044 0
-1657 -3737 0
-1658 -3738 0
-1659 -3739 0
-1660 -3740 0
-1657 -3833 0
-1658 -3834 0
-1659 -3835 0
-1660 -3836 0
-1661 -1677 0
-1662 -1678 0
-1663 -1679 0
-1664 -1680 0
-1661 -1801 0
-1662 -1802 0
-1663 -1803 0
-1664 -1804 0
-1661 -2049 0
-1662 -2050 0
-1663 -2051 0
-1664 -2052 0
-1661 -3653 0
-1662 -3654 0
-1663 -3655 0
-1664 -3656 0
-1661 -3829 0
-1662 -3830 0
-1663 -3831 0
-1664 -3832 0
-1665 -1857 0
-1666 -1858 0
-1667 -1859 0
-1668 -1860 0
-1665 -2057 0
-1666 -2058 0
-1667 -2059 0
-1668 -2060 0
-1665 -3413 0
-1666 -3414 0
-1667 -3415 0
-1668 -3416 0
-1665 -3813 0
-1666 -3814 0
-1667 -3815 0
-1668 -3816 0
-1669 -1785 0
-1670 -1786 0
-1671 -1787 0
-1672 -1788 0
-1669 -2065 0
-1670 -2066 0
-1671 -2067 0
-1672 -2068 0
-1669 -3541 0
-1670 -3542 0
-1671 -3543 0
-1672 -3544 0
-1669 -3817 0
-1670 -3818 0
-1671 -3819 0
-1672 -3820 0
-1673 -2069 0
-1674 -2070 0
-1675 -2071 0
-1676 -2072 0
-1673 -3609 0
-1674 -3610 0
-1675 -3611 0
-1676 -3612 0
-1673 -3821 0
-1674 -3822 0
-1675 -3823 0
-1676 -3824 0
-1677 -1801 0
-1678 -1802 0
-1679 -1803 0
-1680 -1804 0
-1677 -2073 0
-1678 -2074 0
-1679 -2075 0
-1680 -2076 0
-1677 -3605 0
-1678 -3606 0
-1679 -3607 0
-1680 -3608 0
-1677 -3829 0
-1678 -3830 0
-1679 -3831 0
-1680 -3832 0
-1681 -1825 0
-1682 -1826 0
-1683 -1827 0
-1684 -1828 0
-1681 -2089 0
-1682 -2090 0
-1683 -2091 0
-1684 -2092 0
-1681 -3401 0
-1682 -3402 0
-1683 -3403 0
-1684 -3404 0
-1681 -3813 0
-1682 -3814 0
-1683 -3815 0
-1684 -3816 0
-1685 -1741 0
-1686 -1742 0
-1687 -1743 0
-1688 -1744 0
-1685 -2097 0
-1686 -2098 0
-1687 -2099 0
-1688 -2100 0
-1685 -3409 0
-1686 -3410 0
-1687 -3411 0
-1688 -3412 0
-1685 -3837 0
-1686 -3838 0
-1687 -3839 0
-1688 -3840 0
-1689 -2173 0
-1690 -2174 0
-1691 -2175 0
-1692 -2176 0
-1689 -3773 0
-1690 -3774 0
-1691 -3775 0
-1692 -3776 0
-1689 -3817 0
-1690 -3818 0
-1691 -3819 0
-1692 -3820 0
-1693 -1773 0
-1694 -1774 0
-1695 -1775 0
-1696 -1776 0
-1693 -1849 0
-1694 -1850 0
-1695 -1851 0
-1696 -1852 0
-1693 -2177 0
-1694 -2178 0
-1695 -2179 0
-1696 -2180 0
-1693 -3665 0
-1694 -3666 0
-1695 -3667 0
-1696 -3668 0
-1693 -3825 0
-1694 -3826 0
-1695 -3827 0
-1696 -3828 0
-1697 -1785 0
-1698 -1786 0
-1699 -1787 0
-1700 -1788 0
-1697 -1809 0
-1698 -1810 0
-1699 -1811 0
-1700 -1812 0
-1697 -2289 0
-1698 -2290 0
-1699 -2291 0
-1700 -2292 0
-1697 -3581 0
-1698 -3582 0
-1699 -3583 0
-1700 -3584 0
-1697 -3809 0
-1698 -3810 0
-1699 -3811 0
-1700 -3812 0
-1701 -1765 0
-1702 -1766 0
-1703 -1767 0
-1704 -1768 0
-1701 -1769 0
-1702 -1770 0
-1703 -1771 0
-1704 -1772 0
-1701 -1781 0
-1702 -1782 0
-1703 -1783 0
-1704 -1784 0
-1701 -2285 0
-1702 -2286 0
-1703 -2287 0
-1704 -2288 0
-1701 -3577 0
-1702 -3578 0
-1703 -3579 0
-1704 -3580 0
-1701 -3833 0
-1702 -3834 0
-1703 -3835 0
-1704 -3836 0
-1705 -2157 0
-1706 -2158 0
-1707 -2159 0
-1708 -2160 0
-1705 -3633 0
-1706 -3634 0
-1707 -3635 0
-1708 -3636 0
-1705 -3809 0
-1706 -3810 0
-1707 -3811 0
-1708 -3812 0
-1709 -1797 0
-1710 -1798 0
-1711 -1799 0
-1712 -1800 0
-1709 -1845 0
-1710 -1846 0
-1711 -1847 0
-1712 -1848 0
-1709 -2161 0
-1710 -2162 0
-1711 -2163 0
-1712 -2164 0
-1709 -3637 0
-1710 -3638 0
-1711 -3639 0
-1712 -3640 0
-1709 -3833 0
-1710 -3834 0
-1711 -3835 0
-1712 -3836 0
-1713 -2249 0
-1714 -2250 0
-1715 -2251 0
-1716 -2252 0
-1713 -3749 0
-1714 -3750 0
-1715 -3751 0
-1716 -3752 0
-1713 -3821 0
-1714 -3822 0
-1715 -3823 0
-1716 -3824 0
-1717 -1813 0
-1718 -1814 0
-1719 -1815 0
-1720 -1816 0
-1717 -1837 0
-1718 -1838 0
-1719 -1839 0
-1720 -1840 0
-1717 -2253 0
-1718 -2254 0
-1719 -2255 0
-1720 -2256 0
-1717 -3673 0
-1718 -3674 0
-1719 -3675 0
-1720 -3676 0
-1717 -3825 0
-1718 -3826 0
-1719 -3827 0
-1720 -3828 0
-1721 -2257 0
-1722 -2258 0
-1723 -2259 0
-1724 -2260 0
-1721 -3669 0
-1722 -3670 0
-1723 -3671 0
-1724 -3672 0
-1721 -3817 0
-1722 -3818 0
-1723 -3819 0
-1724 -3820 0
-1725 -1737 0
-1726 -1738 0
-1727 -1739 0
-1728 -1740 0
-1725 -2333 0
-1726 -2334 0
-1727 -2335 0
-1728 -2336 0
-1725 -3613 0
-1726 -3614 0
-1727 -3615 0
-1728 -3616 0
-1725 -3797 0
-1726 -3798 0
-1727 -3799 0
-1728 -3800 0
-1729 -1805 0
-1730 -1806 0
-1731 -1807 0
-1732 -1808 0
-1729 -1857 0
-1730 -1858 0
-1731 -1859 0
-1732 -1860 0
-1729 -2225 0
-1730 -2226 0
-1731 -2227 0
-1732 -2228 0
-1729 -3617 0
-1730 -3618 0
-1731 -3619 0
-1732 -3620 0
-1729 -3805 0
-1730 -3806 0
-1731 -3807 0
-1732 -3808 0
-1733 -2273 0
-1734 -2274 0
-1735 -2275 0
-1736 -2276 0
-1733 -3785 0
-1734 -3786 0
-1735 -3787 0
-1736 -3788 0
-1733 -3829 0
-1734 -3830 0
-1735 -3831 0
-1736 -3832 0
-1737 -1869 0
-1738 -1870 0
-1739 -1871 0
-1740 -1872 0
-1737 -2233 0
-1738 -2234 0
-1739 -2235 0
-1740 -2236 0
-1737 -3693 0
-1738 -3694 0
-1739 -3695 0
-1740 -3696 0
-1737 -3797 0
-1738 -3798 0
-1739 -3799 0
-1740 -3800 0
-1741 -2209 0
-1742 -2210 0
-1743 -2211 0
-1744 -2212 0
-1741 -3565 0
-1742 -3566 0
-1743 -3567 0
-1744 -3568 0
-1741 -3841 0
-1742 -3842 0
-1743 -3843 0
-1744 -3844 0
-1745 -1793 0
-1746 -1794 0
-1747 -1795 0
-1748 -1796 0
-1745 -1829 0
-1746 -1830 0
-1747 -1831 0
-1748 -1832 0
-1745 -2261 0
-1746 -2262 0
-1747 -2263 0
-1748 -2264 0
-1745 -3553 0
-1746 -3554 0
-1747 -3555 0
-1748 -3556 0
-1745 -3841 0
-1746 -3842 0
-1747 -3843 0
-1748 -3844 0
-1749 -1789 0
-1750 -1790 0
-1751 -1791 0
-1752 -1792 0
-1749 -1833 0
-1750 -1834 0
-1751 -1835 0
-1752 -1836 0
-1749 -2265 0
-1750 -2266 0
-1751 -2267 0
-1752 -2268 0
-1749 -3777 0
-1750 -3778 0
-1751 -3779 0
-1752 -3780 0
-1749 -3837 0
-1750 -3838 0
-1751 -3839 0
-1752 -3840 0
-1753 -1757 0
-1754 -1758 0
-1755 -1759 0
-1756 -1760 0
-1753 -1817 0
-1754 -1818 0
-1755 -1819 0
-1756 -1820 0
-1753 -1825 0
-1754 -1826 0
-1755 -1827 0
-1756 -1828 0
-1753 -2197 0
-1754 -2198 0
-1755 -2199 0
-1756 -2200 0
-1753 -3601 0
-1754 -3602 0
-1755 -3603 0
-1756 -3604 0
-1753 -3813 0
-1754 -3814 0
-1755 -3815 0
-1756 -3816 0
-1757 -1817 0
-1758 -1818 0
-1759 -1819 0
-1760 -1820 0
-1757 -2305 0
-1758 -2306 0
-1759 -2307 0
-1760 -2308 0
-1757 -3629 0
-1758 -3630 0
-1759 -3631 0
-1760 -3632 0
-1757 -3813 0
-1758 -3814 0
-1759 -3815 0
-1760 -3816 0
-1761 -1853 0
-1762 -1854 0
-1763 -1855 0
-1764 -1856 0
-1761 -1865 0
-1762 -1866 0
-1763 -1867 0
-1764 -1868 0
-1761 -2205 0
-1762 -2206 0
-1763 -2207 0
-1764 -2208 0
-1761 -3625 0
-1762 -3626 0
-1763 -3627 0
-1764 -3628 0
-1761 -3801 0
-1762 -3802 0
-1763 -3803 0
-1764 -3804 0
-1765 -1769 0
-1766 -1770 0
-1767 -1771 0
-1768 -1772 0
-1765 -1781 0
-1766 -1782 0
-1767 -1783 0
-1768 -1784 0
-1765 -2317 0
-1766 -2318 0
-1767 -2319 0
-1768 -2320 0
-1765 -3469 0
-1766 -3470 0
-1767 -3471 0
-1768 -3472 0
-1765 -3825 0
-1766 -3826 0
-1767 -3827 0
-1768 -3828 0
-1769 -1797 0
-1770 -1798 0
-1771 -1799 0
-1772 -1800 0
-1769 -2321 0
-1770 -2322 0
-1771 -2323 0
-1772 -2324 0
-1769 -3485 0
-1770 -3486 0
-1771 -3487 0
-1772 -3488 0
-1769 -3825 0
-1770 -3826 0
-1771 -3827 0
-1772 -3828 0
-1773 -1849 0
-1774 -1850 0
-1775 -1851 0
-1776 -1852 0
-1773 -2325 0
-1774 -2326 0
-1775 -2327 0
-1776 -2328 0
-1773 -3477 0
-1774 -3478 0
-1775 -3479 0
-1776 -3480 0
-1773 -3833 0
-1774 -3834 0
-1775 -3835 0
-1776 -3836 0
-1777 -2181 0
-1778 -2182 0
-1779 -2183 0
-1780 -2184 0
-1777 -3753 0
-1778 -3754 0
-1779 -3755 0
-1780 -3756 0
-1777 -3829 0
-1778 -3830 0
-1779 -3831 0
-1780 -3832 0
-1781 -2185 0
-1782 -2186 0
-1783 -2187 0
-1784 -2188 0
-1781 -3645 0
-1782 -3646 0
-1783 -3647 0
-1784 -3648 0
-1781 -3833 0
-1782 -3834 0
-1783 -3835 0
-1784 -3836 0
-1785 -2189 0
-1786 -2190 0
-1787 -2191 0
-1788 -2192 0
-1785 -3745 0
-1786 -3746 0
-1787 -3747 0
-1788 -3748 0
-1785 -3809 0
-1786 -3810 0
-1787 -3811 0
-1788 -3812 0
-1789 -1833 0
-1790 -1834 0
-1791 -1835 0
-1792 -1836 0
-1789 -2217 0
-1790 -2218 0
-1791 -2219 0
-1792 -2220 0
-1789 -3457 0
-1790 -3458 0
-1791 -3459 0
-1792 -3460 0
-1789 -3837 0
-1790 -3838 0
-1791 -3839 0
-1792 -3840 0
-1793 -1829 0
-1794 -1830 0
-1795 -1831 0
-1796 -1832 0
-1793 -2221 0
-1794 -2222 0
-1795 -2223 0
-1796 -2224 0
-1793 -3741 0
-1794 -3742 0
-1795 -3743 0
-1796 -3744 0
-1793 -3841 0
-1794 -3842 0
-1795 -3843 0
-1796 -3844 0
-1797 -1845 0
-1798 -1846 0
-1799 -1847 0
-1800 -1848 0
-1797 -2329 0
-1798 -2330 0
-1799 -2331 0
-1800 -2332 0
-1797 -3493 0
-1798 -3494 0
-1799 -3495 0
-1800 -3496 0
-1797 -3825 0
-1798 -3826 0
-1799 -3827 0
-1800 -3828 0
-1801 -2201 0
-1802 -2202 0
-1803 -2203 0
-1804 -2204 0
-1801 -3789 0
-1802 -3790 0
-1803 -3791 0
-1804 -3792 0
-1801 -3821 0
-1802 -3822 0
-1803 -3823 0
-1804 -3824 0
-1805 -2293 0
-1806 -2294 0
-1807 -2295 0
-1808 -2296 0
-1805 -3781 0
-1806 -3782 0
-1807 -3783 0
-1808 -3784 0
-1805 -3813 0
-1806 -3814 0
-1807 -3815 0
-1808 -3816 0
-1809 -2297 0
-1810 -2298 0
-1811 -2299 0
-1812 -2300 0
-1809 -3481 0
-1810 -3482 0
-1811 -3483 0
-1812 -3484 0
-1809 -3817 0
-1810 -3818 0
-1811 -3819 0
-1812 -3820 0
-1813 -1837 0
-1814 -1838 0
-1815 -1839 0
-1816 -1840 0
-1813 -1841 0
-1814 -1842 0
-1815 -1843 0
-1816 -1844 0
-1813 -2169 0
-1814 -2170 0
-1815 -2171 0
-1816 -2172 0
-1813 -3509 0
-1814 -3510 0
-1815 -3511 0
-1816 -3512 0
-1813 -3825 0
-1814 -3826 0
-1815 -3827 0
-1816 -3828 0
-1817 -2277 0
-1818 -2278 0
-1819 -2279 0
-1820 -2280 0
-1817 -3793 0
-1818 -3794 0
-1819 -3795 0
-1820 -3796 0
-1817 -3805 0
-1818 -3806 0
-1819 -3807 0
-1820 -3808 0
-1821 -2281 0
-1822 -2282 0
-1823 -2283 0
-1824 -2284 0
-1821 -3561 0
-1822 -3562 0
-1823 -3563 0
-1824 -3564 0
-1821 -3809 0
-1822 -3810 0
-1823 -3811 0
-1824 -3812 0
-1825 -2337 0
-1826 -2338 0
-1827 -2339 0
-1828 -2340 0
-1825 -3705 0
-1826 -3706 0
-1827 -3707 0
-1828 -3708 0
-1825 -3813 0
-1826 -3814 0
-1827 -3815 0
-1828 -3816 0
-1829 -2313 0
-1830 -2314 0
-1831 -2315 0
-1832 -2316 0
-1829 -3621 0
-1830 -3622 0
-1831 -3623 0
-1832 -3624 0
-1829 -3837 0
-1830 -3838 0
-1831 -3839 0
-1832 -3840 0
-1833 -2309 0
-1834 -2310 0
-1835 -2311 0
-1836 -2312 0
-1833 -3689 0
-1834 -3690 0
-1835 -3691 0
-1836 -3692 0
-1833 -3841 0
-1834 -3842 0
-1835 -3843 0
-1836 -3844 0
-1837 -1841 0
-1838 -1842 0
-1839 -1843 0
-1840 -1844 0
-1837 -2237 0
-1838 -2238 0
-1839 -2239 0
-1840 -2240 0
-1837 -3437 0
-1838 -3438 0
-1839 -3439 0
-1840 -3440 0
-1837 -3833 0
-1838 -3834 0
-1839 -3835 0
-1840 -3836 0
-1841 -1849 0
-1842 -1850 0
-1843 -1851 0
-1844 -1852 0
-1841 -2241 0
-1842 -2242 0
-1843 -2243 0
-1844 -2244 0
-1841 -3445 0
-1842 -3446 0
-1843 -3447 0
-1844 -3448 0
-1841 -3833 0
-1842 -3834 0
-1843 -3835 0
-1844 -3836 0
-1845 -2245 0
-1846 -2246 0
-1847 -2247 0
-1848 -2248 0
-1845 -3453 0
-1846 -3454 0
-1847 -3455 0
-1848 -3456 0
-1845 -3825 0
-1846 -3826 0
-1847 -3827 0
-1848 -3828 0
-1849 -2269 0
-1850 -2270 0
-1851 -2271 0
-1852 -2272 0
-1849 -3501 0
-1850 -3502 0
-1851 -3503 0
-1852 -3504 0
-1849 -3833 0
-1850 -3834 0
-1851 -3835 0
-1852 -3836 0
-1853 -2193 0
-1854 -2194 0
-1855 -2195 0
-1856 -2196 0
-1853 -3597 0
-1854 -3598 0
-1855 -3599 0
-1856 -3600 0
-1853 -3801 0
-1854 -3802 0
-1855 -3803 0
-1856 -3804 0
-1857 -2301 0
-1858 -2302 0
-1859 -2303 0
-1860 -2304 0
-1857 -3661 0
-1858 -3662 0
-1859 -3663 0
-1860 -3664 0
-1857 -3805 0
-1858 -3806 0
-1859 -3807 0
-1860 -3808 0
-1861 -1869 0
-1862 -1870 0
-1863 -1871 0
-1864 -1872 0
-1861 -2353 0
-1862 -2354 0
-1863 -2355 0
-1864 -2356 0
-1861 -3717 0
-1862 -3718 0
-1863 -3719 0
-1864 -3720 0
-1861 -3797 0
-1862 -3798 0
-1863 -3799 0
-1864 -3800 0
-1865 -1873 0
-1866 -1874 0
-1867 -1875 0
-1868 -1876 0
-1865 -2349 0
-1866 -2350 0
-1867 -2351 0
-1868 -2352 0
-1865 -3641 0
-1866 -3642 0
-1867 -3643 0
-1868 -3644 0
-1865 -3801 0
-1866 -3802 0
-1867 -3803 0
-1868 -3804 0
-1869 -2345 0
-1870 -2346 0
-1871 -2347 0
-1872 -2348 0
-1869 -3713 0
-1870 -3714 0
-1871 -3715 0
-1872 -3716 0
-1869 -3797 0
-1870 -3798 0
-1871 -3799 0
-1872 -3800 0
-1873 -2341 0
-1874 -2342 0
-1875 -2343 0
-1876 -2344 0
-1873 -3733 0
-1874 -3734 0
-1875 -3735 0
-1876 -3736 0
-1873 -3801 0
-1874 -3802 0
-1875 -3803 0
-1876 -3804 0
-1877 -1985 0
-1878 -1986 0
-1879 -1987 0
-1880 -1988 0
-1877 -2073 0
-1878 -2074 0
-1879 -2075 0
-1880 -2076 0
-1877 -2121 0
-1878 -2122 0
-1879 -2123 0
-1880 -2124 0
-1877 -2229 0
-1878 -2230 0
-1879 -2231 0
-1880 -2232 0
-1877 -2385 0
-1878 -2386 0
-1879 -2387 0
-1880 -2388 0
-1877 -3809 0
-1878 -3810 0
-1879 -3811 0
-1880 -3812 0
-1881 -2041 0
-1882 -2042 0
-1883 -2043 0
-1884 -2044 0
-1881 -2101 0
-1882 -2102 0
-1883 -2103 0
-1884 -2104 0
-1881 -2141 0
-1882 -2142 0
-1883 -2143 0
-1884 -2144 0
-1881 -2305 0
-1882 -2306 0
-1883 -2307 0
-1884 -2308 0
-1881 -2373 0
-1882 -2374 0
-1883 -2375 0
-1884 -2376 0
-1881 -3817 0
-1882 -3818 0
-1883 -3819 0
-1884 -3820 0
-1885 -1901 0
-1886 -1902 0
-1887 -1903 0
-1888 -1904 0
-1885 -2165 0
-1886 -2166 0
-1887 -2167 0
-1888 -2168 0
-1885 -2245 0
-1886 -2246 0
-1887 -2247 0
-1888 -2248 0
-1885 -2309 0
-1886 -2310 0
-1887 -2311 0
-1888 -2312 0
-1885 -2401 0
-1886 -2402 0
-1887 -2403 0
-1888 -2404 0
-1885 -3829 0
-1886 -3830 0
-1887 -3831 0
-1888 -3832 0
-1889 -1897 0
-1890 -1898 0
-1891 -1899 0
-1892 -1900 0
-1889 -2117 0
-1890 -2118 0
-1891 -2119 0
-1892 -2120 0
-1889 -2169 0
-1890 -2170 0
-1891 -2171 0
-1892 -2172 0
-1889 -2313 0
-1890 -2314 0
-1891 -2315 0
-1892 -2316 0
-1889 -2457 0
-1890 -2458 0
-1891 -2459 0
-1892 -2460 0
-1889 -3821 0
-1890 -3822 0
-1891 -3823 0
-1892 -3824 0
-1893 -2097 0
-1894 -2098 0
-1895 -2099 0
-1896 -2100 0
-1893 -2201 0
-1894 -2202 0
-1895 -2203 0
-1896 -2204 0
-1893 -2293 0
-1894 -2294 0
-1895 -2295 0
-1896 -2296 0
-1893 -2329 0
-1894 -2330 0
-1895 -2331 0
-1896 -2332 0
-1893 -2361 0
-1894 -2362 0
-1895 -2363 0
-1896 -2364 0
-1893 -3797 0
-1894 -3798 0
-1895 -3799 0
-1896 -3800 0
-1897 -2289 0
-1898 -2290 0
-1899 -2291 0
-1900 -2292 0
-1897 -2313 0
-1898 -2314 0
-1899 -2315 0
-1900 -2316 0
-1897 -2325 0
-1898 -2326 0
-1899 -2327 0
-1900 -2328 0
-1897 -2421 0
-1898 -2422 0
-1899 -2423 0
-1900 -2424 0
-1897 -3821 0
-1898 -3822 0
-1899 -3823 0
-1900 -3824 0
-1901 -2033 0
-1902 -2034 0
-1903 -2035 0
-1904 -2036 0
-1901 -2285 0
-1902 -2286 0
-1903 -2287 0
-1904 -2288 0
-1901 -2309 0
-1902 -2310 0
-1903 -2311 0
-1904 -2312 0
-1901 -2425 0
-1902 -2426 0
-1903 -2427 0
-1904 -2428 0
-1901 -3829 0
-1902 -3830 0
-1903 -3831 0
-1904 -3832 0
-1905 -2153 0
-1906 -2154 0
-1907 -2155 0
-1908 -2156 0
-1905 -2269 0
-1906 -2270 0
-1907 -2271 0
-1908 -2272 0
-1905 -2273 0
-1906 -2274 0
-1907 -2275 0
-1908 -2276 0
-1905 -2277 0
-1906 -2278 0
-1907 -2279 0
-1908 -2280 0
-1905 -2357 0
-1906 -2358 0
-1907 -2359 0
-1908 -2360 0
-1905 -3801 0
-1906 -3802 0
-1907 -3803 0
-1908 -3804 0
-1909 -1961 0
-1910 -1962 0
-1911 -1963 0
-1912 -1964 0
-1909 -2093 0
-1910 -2094 0
-1911 -2095 0
-1912 -2096 0
-1909 -2189 0
-1910 -2190 0
-1911 -2191 0
-1912 -2192 0
-1909 -2317 0
-1910 -2318 0
-1911 -2319 0
-1912 -2320 0
-1909 -2469 0
-1910 -2470 0
-1911 -2471 0
-1912 -2472 0
-1909 -3813 0
-1910 -3814 0
-1911 -3815 0
-1912 -3816 0
-1913 -1965 0
-1914 -1966 0
-1915 -1967 0
-1916 -1968 0
-1913 -2017 0
-1914 -2018 0
-1915 -2019 0
-1916 -2020 0
-1913 -2133 0
-1914 -2134 0
-1915 -2135 0
-1916 -2136 0
-1913 -2249 0
-1914 -2250 0
-1915 -2251 0
-1916 -2252 0
-1913 -2501 0
-1914 -2502 0
-1915 -2503 0
-1916 -2504 0
-1913 -3841 0
-1914 -3842 0
-1915 -3843 0
-1916 -3844 0
-1917 -1969 0
-1918 -1970 0
-1919 -1971 0
-1920 -1972 0
-1917 -2001 0
-1918 -2002 0
-1919 -2003 0
-1920 -2004 0
-1917 -2181 0
-1918 -2182 0
-1919 -2183 0
-1920 -2184 0
-1917 -2301 0
-1918 -2302 0
-1919 -2303 0
-1920 -2304 0
-1917 -2505 0
-1918 -2506 0
-1919 -2507 0
-1920 -2508 0
-1917 -3837 0
-1918 -3838 0
-1919 -3839 0
-1920 -3840 0
-1921 -1973 0
-1922 -1974 0
-1923 -1975 0
-1924 -1976 0
-1921 -2177 0
-1922 -2178 0
-1923 -2179 0
-1924 -2180 0
-1921 -2221 0
-1922 -2222 0
-1923 -2223 0
-1924 -2224 0
-1921 -2341 0
-1922 -2342 0
-1923 -2343 0
-1924 -2344 0
-1921 -2365 0
-1922 -2366 0
-1923 -2367 0
-1924 -2368 0
-1921 -3813 0
-1922 -3814 0
-1923 -3815 0
-1924 -3816 0
-1925 -1949 0
-1926 -1950 0
-1927 -1951 0
-1928 -1952 0
-1925 -1973 0
-1926 -1974 0
-1927 -1975 0
-1928 -1976 0
-1925 -2221 0
-1926 -2222 0
-1927 -2223 0
-1928 -2224 0
-1925 -2237 0
-1926 -2238 0
-1927 -2239 0
-1928 -2240 0
-1925 -2625 0
-1926 -2626 0
-1927 -2627 0
-1928 -2628 0
-1925 -3805 0
-1926 -3806 0
-1927 -3807 0
-1928 -3808 0
-1929 -1953 0
-1930 -1954 0
-1931 -1955 0
-1932 -1956 0
-1929 -1969 0
-1930 -1970 0
-1931 -1971 0
-1932 -1972 0
-1929 -2065 0
-1930 -2066 0
-1931 -2067 0
-1932 -2068 0
-1929 -2125 0
-1930 -2126 0
-1931 -2127 0
-1932 -2128 0
-1929 -2629 0
-1930 -2630 0
-1931 -2631 0
-1932 -2632 0
-1929 -3837 0
-1930 -3838 0
-1931 -3839 0
-1932 -3840 0
-1933 -1957 0
-1934 -1958 0
-1935 -1959 0
-1936 -1960 0
-1933 -1965 0
-1934 -1966 0
-1935 -1967 0
-1936 -1968 0
-1933 -2049 0
-1934 -2050 0
-1935 -2051 0
-1936 -2052 0
-1933 -2105 0
-1934 -2106 0
-1935 -2107 0
-1936 -2108 0
-1933 -2633 0
-1934 -2634 0
-1935 -2635 0
-1936 -2636 0
-1933 -3841 0
-1934 -3842 0
-1935 -3843 0
-1936 -3844 0
-1937 -1941 0
-1938 -1942 0
-1939 -1943 0
-1940 -1944 0
-1937 -1961 0
-1938 -1962 0
-1939 -1963 0
-1940 -1964 0
-1937 -2265 0
-1938 -2266 0
-1939 -2267 0
-1940 -2268 0
-1937 -2317 0
-1938 -2318 0
-1939 -2319 0
-1940 -2320 0
-1937 -2609 0
-1938 -2610 0
-1939 -2611 0
-1940 -2612 0
-1937 -3805 0
-1938 -3806 0
-1939 -3807 0
-1940 -3808 0
-1941 -2161 0
-1942 -2162 0
-1943 -2163 0
-1944 -2164 0
-1941 -2265 0
-1942 -2266 0
-1943 -2267 0
-1944 -2268 0
-1941 -2353 0
-1942 -2354 0
-1943 -2355 0
-1944 -2356 0
-1941 -2377 0
-1942 -2378 0
-1943 -2379 0
-1944 -2380 0
-1941 -3805 0
-1942 -3806 0
-1943 -3807 0
-1944 -3808 0
-1945 -2145 0
-1946 -2146 0
-1947 -2147 0
-1948 -2148 0
-1945 -2157 0
-1946 -2158 0
-1947 -2159 0
-1948 -2160 0
-1945 -2261 0
-1946 -2262 0
-1947 -2263 0
-1948 -2264 0
-1945 -2329 0
-1946 -2330 0
-1947 -2331 0
-1948 -2332 0
-1945 -2381 0
-1946 -2382 0
-1947 -2383 0
-1948 -2384 0
-1945 -3797 0
-1946 -3798 0
-1947 -3799 0
-1948 -3800 0
-1949 -2149 0
-1950 -2150 0
-1951 -2151 0
-1952 -2152 0
-1949 -2237 0
-1950 -2238 0
-1951 -2239 0
-1952 -2240 0
-1949 -2257 0
-1950 -2258 0
-1951 -2259 0
-1952 -2260 0
-1949 -2557 0
-1950 -2558 0
-1951 -2559 0
-1952 -2560 0
-1949 -3805 0
-1950 -3806 0
-1951 -3807 0
-1952 -3808 0
-1953 -2065 0
-1954 -2066 0
-1955 -2067 0
-1956 -2068 0
-1953 -2113 0
-1954 -2114 0
-1955 -2115 0
-1956 -2116 0
-1953 -2181 0
-1954 -2182 0
-1955 -2183 0
-1956 -2184 0
-1953 -2561 0
-1954 -2562 0
-1955 -2563 0
-1956 -2564 0
-1953 -3837 0
-1954 -3838 0
-1955 -3839 0
-1956 -3840 0
-1957 -2105 0
-1958 -2106 0
-1959 -2107 0
-1960 -2108 0
-1957 -2249 0
-1958 -2250 0
-1959 -2251 0
-1960 -2252 0
-1957 -2337 0
-1958 -2338 0
-1959 -2339 0
-1960 -2340 0
-1957 -2565 0
-1958 -2566 0
-1959 -2567 0
-1960 -2568 0
-1957 -3841 0
-1958 -3842 0
-1959 -3843 0
-1960 -3844 0
-1961 -2265 0
-1962 -2266 0
-1963 -2267 0
-1964 -2268 0
-1961 -2317 0
-1962 -2318 0
-1963 -2319 0
-1964 -2320 0
-1961 -2569 0
-1962 -2570 0
-1963 -2571 0
-1964 -2572 0
-1961 -3813 0
-1962 -3814 0
-1963 -3815 0
-1964 -3816 0
-1965 -2049 0
-1966 -2050 0
-1967 -2051 0
-1968 -2052 0
-1965 -2133 0
-1966 -2134 0
-1967 -2135 0
-1968 -2136 0
-1965 -2573 0
-1966 -2574 0
-1967 -2575 0
-1968 -2576 0
-1965 -3841 0
-1966 -3842 0
-1967 -3843 0
-1968 -3844 0
-1969 -2001 0
-1970 -2002 0
-1971 -2003 0
-1972 -2004 0
-1969 -2125 0
-1970 -2126 0
-1971 -2127 0
-1972 -2128 0
-1969 -2577 0
-1970 -2578 0
-1971 -2579 0
-1972 -2580 0
-1969 -3837 0
-1970 -3838 0
-1971 -3839 0
-1972 -3840 0
-1973 -2221 0
-1974 -2222 0
-1975 -2223 0
-1976 -2224 0
-1973 -2237 0
-1974 -2238 0
-1975 -2239 0
-1976 -2240 0
-1973 -2537 0
-1974 -2538 0
-1975 -2539 0
-1976 -2540 0
-1973 -3813 0
-1974 -3814 0
-1975 -3815 0
-1976 -3816 0
-1977 -2089 0
-1978 -2090 0
-1979 -2091 0
-1980 -2092 0
-1977 -2173 0
-1978 -2174 0
-1979 -2175 0
-1980 -2176 0
-1977 -2217 0
-1978 -2218 0
-1979 -2219 0
-1980 -2220 0
-1977 -2269 0
-1978 -2270 0
-1979 -2271 0
-1980 -2272 0
-1977 -2369 0
-1978 -2370 0
-1979 -2371 0
-1980 -2372 0
-1977 -3801 0
-1978 -3802 0
-1979 -3803 0
-1980 -3804 0
-1981 -1997 0
-1982 -1998 0
-1983 -1999 0
-1984 -2000 0
-1981 -2037 0
-1982 -2038 0
-1983 -2039 0
-1984 -2040 0
-1981 -2233 0
-1982 -2234 0
-1983 -2235 0
-1984 -2236 0
-1981 -2281 0
-1982 -2282 0
-1983 -2283 0
-1984 -2284 0
-1981 -2481 0
-1982 -2482 0
-1983 -2483 0
-1984 -2484 0
-1981 -3833 0
-1982 -3834 0
-1983 -3835 0
-1984 -3836 0
-1985 -2109 0
-1986 -2110 0
-1987 -2111 0
-1988 -2112 0
-1985 -2229 0
-1986 -2230 0
-1987 -2231 0
-1988 -2232 0
-1985 -2241 0
-1986 -2242 0
-1987 -2243 0
-1988 -2244 0
-1985 -2613 0
-1986 -2614 0
-1987 -2615 0
-1988 -2616 0
-1985 -3809 0
-1986 -3810 0
-1987 -3811 0
-1988 -3812 0
-1989 -2117 0
-1990 -2118 0
-1991 -2119 0
-1992 -2120 0
-1989 -2169 0
-1990 -2170 0
-1991 -2171 0
-1992 -2172 0
-1989 -2209 0
-1990 -2210 0
-1991 -2211 0
-1992 -2212 0
-1989 -2345 0
-1990 -2346 0
-1991 -2347 0
-1992 -2348 0
-1989 -2389 0
-1990 -2390 0
-1991 -2391 0
-1992 -2392 0
-1989 -3829 0
-1990 -3830 0
-1991 -3831 0
-1992 -3832 0
-1993 -2013 0
-1994 -2014 0
-1995 -2015 0
-1996 -2016 0
-1993 -2029 0
-1994 -2030 0
-1995 -2031 0
-1996 -2032 0
-1993 -2205 0
-1994 -2206 0
-1995 -2207 0
-1996 -2208 0
-1993 -2297 0
-1994 -2298 0
-1995 -2299 0
-1996 -2300 0
-1993 -2585 0
-1994 -2586 0
-1995 -2587 0
-1996 -2588 0
-1993 -3825 0
-1994 -3826 0
-1995 -3827 0
-1996 -3828 0
-1997 -2005 0
-1998 -2006 0
-1999 -2007 0
-2000 -2008 0
-1997 -2069 0
-1998 -2070 0
-1999 -2071 0
-2000 -2072 0
-1997 -2233 0
-1998 -2234 0
-1999 -2235 0
-2000 -2236 0
-1997 -2717 0
-1998 -2718 0
-1999 -2719 0
-2000 -2720 0
-1997 -3833 0
-1998 -3834 0
-1999 -3835 0
-2000 -3836 0
-2001 -2125 0
-2002 -2126 0
-2003 -2127 0
-2004 -2128 0
-2001 -2301 0
-2002 -2302 0
-2003 -2303 0
-2004 -2304 0
-2001 -2461 0
-2002 -2462 0
-2003 -2463 0
-2004 -2464 0
-2001 -3841 0
-2002 -3842 0
-2003 -3843 0
-2004 -3844 0
-2005 -2061 0
-2006 -2062 0
-2007 -2063 0
-2008 -2064 0
-2005 -2069 0
-2006 -2070 0
-2007 -2071 0
-2008 -2072 0
-2005 -2081 0
-2006 -2082 0
-2007 -2083 0
-2008 -2084 0
-2005 -2721 0
-2006 -2722 0
-2007 -2723 0
-2008 -2724 0
-2005 -3833 0
-2006 -3834 0
-2007 -3835 0
-2008 -3836 0
-2009 -2101 0
-2010 -2102 0
-2011 -2103 0
-2012 -2104 0
-2009 -2129 0
-2010 -2130 0
-2011 -2131 0
-2012 -2132 0
-2009 -2193 0
-2010 -2194 0
-2011 -2195 0
-2012 -2196 0
-2009 -2321 0
-2010 -2322 0
-2011 -2323 0
-2012 -2324 0
-2009 -2597 0
-2010 -2598 0
-2011 -2599 0
-2012 -2600 0
-2009 -3817 0
-2010 -3818 0
-2011 -3819 0
-2012 -3820 0
-2013 -2053 0
-2014 -2054 0
-2015 -2055 0
-2016 -2056 0
-2013 -2197 0
-2014 -2198 0
-2015 -2199 0
-2016 -2200 0
-2013 -2297 0
-2014 -2298 0
-2015 -2299 0
-2016 -2300 0
-2013 -2725 0
-2014 -2726 0
-2015 -2727 0
-2016 -2728 0
-2013 -3825 0
-2014 -3826 0
-2015 -3827 0
-2016 -3828 0
-2017 -2133 0
-2018 -2134 0
-2019 -2135 0
-2020 -2136 0
-2017 -2249 0
-2018 -2250 0
-2019 -2251 0
-2020 -2252 0
-2017 -2337 0
-2018 -2338 0
-2019 -2339 0
-2020 -2340 0
-2017 -2697 0
-2018 -2698 0
-2019 -2699 0
-2020 -2700 0
-2017 -3837 0
-2018 -3838 0
-2019 -3839 0
-2020 -3840 0
-2021 -2045 0
-2022 -2046 0
-2023 -2047 0
-2024 -2048 0
-2021 -2053 0
-2022 -2054 0
-2023 -2055 0
-2024 -2056 0
-2021 -2137 0
-2022 -2138 0
-2023 -2139 0
-2024 -2140 0
-2021 -2197 0
-2022 -2198 0
-2023 -2199 0
-2024 -2200 0
-2021 -2393 0
-2022 -2394 0
-2023 -2395 0
-2024 -2396 0
-2021 -3833 0
-2022 -3834 0
-2023 -3835 0
-2024 -3836 0
-2025 -2041 0
-2026 -2042 0
-2027 -2043 0
-2028 -2044 0
-2025 -2129 0
-2026 -2130 0
-2027 -2131 0
-2028 -2132 0
-2025 -2141 0
-2026 -2142 0
-2027 -2143 0
-2028 -2144 0
-2025 -2193 0
-2026 -2194 0
-2027 -2195 0
-2028 -2196 0
-2025 -2397 0
-2026 -2398 0
-2027 -2399 0
-2028 -2400 0
-2025 -3809 0
-2026 -3810 0
-2027 -3811 0
-2028 -3812 0
-2029 -2045 0
-2030 -2046 0
-2031 -2047 0
-2032 -2048 0
-2029 -2137 0
-2030 -2138 0
-2031 -2139 0
-2032 -2140 0
-2029 -2205 0
-2030 -2206 0
-2031 -2207 0
-2032 -2208 0
-2029 -2797 0
-2030 -2798 0
-2031 -2799 0
-2032 -2800 0
-2029 -3825 0
-2030 -3826 0
-2031 -3827 0
-2032 -3828 0
-2033 -2077 0
-2034 -2078 0
-2035 -2079 0
-2036 -2080 0
-2033 -2285 0
-2034 -2286 0
-2035 -2287 0
-2036 -2288 0
-2033 -2309 0
-2034 -2310 0
-2035 -2311 0
-2036 -2312 0
-2033 -2589 0
-2034 -2590 0
-2035 -2591 0
-2036 -2592 0
-2033 -3821 0
-2034 -3822 0
-2035 -3823 0
-2036 -3824 0
-2037 -2061 0
-2038 -2062 0
-2039 -2063 0
-2040 -2064 0
-2037 -2225 0
-2038 -2226 0
-2039 -2227 0
-2040 -2228 0
-2037 -2281 0
-2038 -2282 0
-2039 -2283 0
-2040 -2284 0
-2037 -2805 0
-2038 -2806 0
-2039 -2807 0
-2040 -2808 0
-2037 -3833 0
-2038 -3834 0
-2039 -3835 0
-2040 -3836 0
-2041 -2129 0
-2042 -2130 0
-2043 -2131 0
-2044 -2132 0
-2041 -2141 0
-2042 -2142 0
-2043 -2143 0
-2044 -2144 0
-2041 -2777 0
-2042 -2778 0
-2043 -2779 0
-2044 -2780 0
-2041 -3817 0
-2042 -3818 0
-2043 -3819 0
-2044 -3820 0
-2045 -2053 0
-2046 -2054 0
-2047 -2055 0
-2048 -2056 0
-2045 -2137 0
-2046 -2138 0
-2047 -2139 0
-2048 -2140 0
-2045 -2801 0
-2046 -2802 0
-2047 -2803 0
-2048 -2804 0
-2045 -3825 0
-2046 -3826 0
-2047 -3827 0
-2048 -3828 0
-2049 -2105 0
-2050 -2106 0
-2051 -2107 0
-2052 -2108 0
-2049 -2133 0
-2050 -2134 0
-2051 -2135 0
-2052 -2136 0
-2049 -2693 0
-2050 -2694 0
-2051 -2695 0
-2052 -2696 0
-2049 -3837 0
-2050 -3838 0
-2051 -3839 0
-2052 -3840 0
-2053 -2197 0
-2054 -2198 0
-2055 -2199 0
-2056 -2200 0
-2053 -2809 0
-2054 -2810 0
-2055 -2811 0
-2056 -2812 0
-2053 -3825 0
-2054 -3826 0
-2055 -3827 0
-2056 -3828 0
-2057 -2085 0
-2058 -2086 0
-2059 -2087 0
-2060 -2088 0
-2057 -2109 0
-2058 -2110 0
-2059 -2111 0
-2060 -2112 0
-2057 -2121 0
-2058 -2122 0
-2059 -2123 0
-2060 -2124 0
-2057 -2333 0
-2058 -2334 0
-2059 -2335 0
-2060 -2336 0
-2057 -2453 0
-2058 -2454 0
-2059 -2455 0
-2060 -2456 0
-2057 -3809 0
-2058 -3810 0
-2059 -3811 0
-2060 -3812 0
-2061 -2081 0
-2062 -2082 0
-2063 -2083 0
-2064 -2084 0
-2061 -2225 0
-2062 -2226 0
-2063 -2227 0
-2064 -2228 0
-2061 -2749 0
-2062 -2750 0
-2063 -2751 0
-2064 -2752 0
-2061 -3833 0
-2062 -3834 0
-2063 -3835 0
-2064 -3836 0
-2065 -2113 0
-2066 -2114 0
-2067 -2115 0
-2068 -2116 0
-2065 -2125 0
-2066 -2126 0
-2067 -2127 0
-2068 -2128 0
-2065 -2581 0
-2066 -2582 0
-2067 -2583 0
-2068 -2584 0
-2065 -3841 0
-2066 -3842 0
-2067 -3843 0
-2068 -3844 0
-2069 -2081 0
-2070 -2082 0
-2071 -2083 0
-2072 -2084 0
-2069 -2233 0
-2070 -2234 0
-2071 -2235 0
-2072 -2236 0
-2069 -2649 0
-2070 -2650 0
-2071 -2651 0
-2072 -2652 0
-2069 -3825 0
-2070 -3826 0
-2071 -3827 0
-2072 -3828 0
-2073 -2085 0
-2074 -2086 0
-2075 -2087 0
-2076 -2088 0
-2073 -2121 0
-2074 -2122 0
-2075 -2123 0
-2076 -2124 0
-2073 -2229 0
-2074 -2230 0
-2075 -2231 0
-2076 -2232 0
-2073 -2645 0
-2074 -2646 0
-2075 -2647 0
-2076 -2648 0
-2073 -3817 0
-2074 -3818 0
-2075 -3819 0
-2076 -3820 0
-2077 -2213 0
-2078 -2214 0
-2079 -2215 0
-2080 -2216 0
-2077 -2285 0
-2078 -2286 0
-2079 -2287 0
-2080 -2288 0
-2077 -2349 0
-2078 -2350 0
-2079 -2351 0
-2080 -2352 0
-2077 -2429 0
-2078 -2430 0
-2079 -2431 0
-2080 -2432 0
-2077 -3821 0
-2078 -3822 0
-2079 -3823 0
-2080 -3824 0
-2081 -2225 0
-2082 -2226 0
-2083 -2227 0
-2084 -2228 0
-2081 -2433 0
-2082 -2434 0
-2083 -2435 0
-2084 -2436 0
-2081 -3825 0
-2082 -3826 0
-2083 -3827 0
-2084 -3828 0
-2085 -2121 0
-2086 -2122 0
-2087 -2123 0
-2088 -2124 0
-2085 -2333 0
-2086 -2334 0
-2087 -2335 0
-2088 -2336 0
-2085 -2437 0
-2086 -2438 0
-2087 -2439 0
-2088 -2440 0
-2085 -3817 0
-2086 -3818 0
-2087 -3819 0
-2088 -3820 0
-2089 -2153 0
-2090 -2154 0
-2091 -2155 0
-2092 -2156 0
-2089 -2173 0
-2090 -2174 0
-2091 -2175 0
-2092 -2176 0
-2089 -2253 0
-2090 -2254 0
-2091 -2255 0
-2092 -2256 0
-2089 -2441 0
-2090 -2442 0
-2091 -2443 0
-2092 -2444 0
-2089 -3801 0
-2090 -3802 0
-2091 -3803 0
-2092 -3804 0
-2093 -2189 0
-2094 -2190 0
-2095 -2191 0
-2096 -2192 0
-2093 -2317 0
-2094 -2318 0
-2095 -2319 0
-2096 -2320 0
-2093 -2353 0
-2094 -2354 0
-2095 -2355 0
-2096 -2356 0
-2093 -2445 0
-2094 -2446 0
-2095 -2447 0
-2096 -2448 0
-2093 -3805 0
-2094 -3806 0
-2095 -3807 0
-2096 -3808 0
-2097 -2145 0
-2098 -2146 0
-2099 -2147 0
-2100 -2148 0
-2097 -2185 0
-2098 -2186 0
-2099 -2187 0
-2100 -2188 0
-2097 -2201 0
-2098 -2202 0
-2099 -2203 0
-2100 -2204 0
-2097 -2449 0
-2098 -2450 0
-2099 -2451 0
-2100 -2452 0
-2097 -3797 0
-2098 -3798 0
-2099 -3799 0
-2100 -3800 0
-2101 -2305 0
-2102 -2306 0
-2103 -2307 0
-2104 -2308 0
-2101 -2321 0
-2102 -2322 0
-2103 -2323 0
-2104 -2324 0
-2101 -2545 0
-2102 -2546 0
-2103 -2547 0
-2104 -2548 0
-2101 -3817 0
-2102 -3818 0
-2103 -3819 0
-2104 -3820 0
-2105 -2337 0
-2106 -2338 0
-2107 -2339 0
-2108 -2340 0
-2105 -2473 0
-2106 -2474 0
-2107 -2475 0
-2108 -2476 0
-2105 -3837 0
-2106 -3838 0
-2107 -3839 0
-2108 -3840 0
-2109 -2241 0
-2110 -2242 0
-2111 -2243 0
-2112 -2244 0
-2109 -2333 0
-2110 -2334 0
-2111 -2335 0
-2112 -2336 0
-2109 -2513 0
-2110 -2514 0
-2111 -2515 0
-2112 -2516 0
-2109 -3809 0
-2110 -3810 0
-2111 -3811 0
-2112 -3812 0
-2113 -2181 0
-2114 -2182 0
-2115 -2183 0
-2116 -2184 0
-2113 -2301 0
-2114 -2302 0
-2115 -2303 0
-2116 -2304 0
-2113 -2741 0
-2114 -2742 0
-2115 -2743 0
-2116 -2744 0
-2113 -3841 0
-2114 -3842 0
-2115 -3843 0
-2116 -3844 0
-2117 -2169 0
-2118 -2170 0
-2119 -2171 0
-2120 -2172 0
-2117 -2313 0
-2118 -2314 0
-2119 -2315 0
-2120 -2316 0
-2117 -2489 0
-2118 -2490 0
-2119 -2491 0
-2120 -2492 0
-2117 -3829 0
-2118 -3830 0
-2119 -3831 0
-2120 -3832 0
-2121 -2761 0
-2122 -2762 0
-2123 -2763 0
-2124 -2764 0
-2121 -3809 0
-2122 -3810 0
-2123 -3811 0
-2124 -3812 0
-2125 -2689 0
-2126 -2690 0
-2127 -2691 0
-2128 -2692 0
-2125 -3841 0
-2126 -3842 0
-2127 -3843 0
-2128 -3844 0
-2129 -2193 0
-2130 -2194 0
-2131 -2195 0
-2132 -2196 0
-2129 -2417 0
-2130 -2418 0
-2131 -2419 0
-2132 -2420 0
-2129 -3817 0
-2130 -3818 0
-2131 -3819 0
-2132 -3820 0
-2133 -2465 0
-2134 -2466 0
-2135 -2467 0
-2136 -2468 0
-2133 -3837 0
-2134 -3838 0
-2135 -3839 0
-2136 -3840 0
-2137 -2205 0
-2138 -2206 0
-2139 -2207 0
-2140 -2208 0
-2137 -2765 0
-2138 -2766 0
-2139 -2767 0
-2140 -2768 0
-2137 -3833 0
-2138 -3834 0
-2139 -3835 0
-2140 -3836 0
-2141 -2305 0
-2142 -2306 0
-2143 -2307 0
-2144 -2308 0
-2141 -2769 0
-2142 -2770 0
-2143 -2771 0
-2144 -2772 0
-2141 -3809 0
-2142 -3810 0
-2143 -3811 0
-2144 -3812 0
-2145 -2157 0
-2146 -2158 0
-2147 -2159 0
-2148 -2160 0
-2145 -2185 0
-2146 -2186 0
-2147 -2187 0
-2148 -2188 0
-2145 -2405 0
-2146 -2406 0
-2147 -2407 0
-2148 -2408 0
-2145 -3797 0
-2146 -3798 0
-2147 -3799 0
-2148 -3800 0
-2149 -2237 0
-2150 -2238 0
-2151 -2239 0
-2152 -2240 0
-2149 -2257 0
-2150 -2258 0
-2151 -2259 0
-2152 -2260 0
-2149 -2341 0
-2150 -2342 0
-2151 -2343 0
-2152 -2344 0
-2149 -2409 0
-2150 -2410 0
-2151 -2411 0
-2152 -2412 0
-2149 -3813 0
-2150 -3814 0
-2151 -3815 0
-2152 -3816 0
-2153 -2253 0
-2154 -2254 0
-2155 -2255 0
-2156 -2256 0
-2153 -2273 0
-2154 -2274 0
-2155 -2275 0
-2156 -2276 0
-2153 -2413 0
-2154 -2414 0
-2155 -2415 0
-2156 -2416 0
-2153 -3801 0
-2154 -3802 0
-2155 -3803 0
-2156 -3804 0
-2157 -2185 0
-2158 -2186 0
-2159 -2187 0
-2160 -2188 0
-2157 -2261 0
-2158 -2262 0
-2159 -2263 0
-2160 -2264 0
-2157 -2673 0
-2158 -2674 0
-2159 -2675 0
-2160 -2676 0
-2157 -3801 0
-2158 -3802 0
-2159 -3803 0
-2160 -3804 0
-2161 -2189 0
-2162 -2190 0
-2163 -2191 0
-2164 -2192 0
-2161 -2265 0
-2162 -2266 0
-2163 -2267 0
-2164 -2268 0
-2161 -2353 0
-2162 -2354 0
-2163 -2355 0
-2164 -2356 0
-2161 -2677 0
-2162 -2678 0
-2163 -2679 0
-2164 -2680 0
-2161 -3813 0
-2162 -3814 0
-2163 -3815 0
-2164 -3816 0
-2165 -2213 0
-2166 -2214 0
-2167 -2215 0
-2168 -2216 0
-2165 -2245 0
-2166 -2246 0
-2167 -2247 0
-2168 -2248 0
-2165 -2349 0
-2166 -2350 0
-2167 -2351 0
-2168 -2352 0
-2165 -2553 0
-2166 -2554 0
-2167 -2555 0
-2168 -2556 0
-2165 -3829 0
-2166 -3830 0
-2167 -3831 0
-2168 -3832 0
-2169 -2209 0
-2170 -2210 0
-2171 -2211 0
-2172 -2212 0
-2169 -2549 0
-2170 -2550 0
-2171 -2551 0
-2172 -2552 0
-2169 -3821 0
-2170 -3822 0
-2171 -3823 0
-2172 -3824 0
-2173 -2217 0
-2174 -2218 0
-2175 -2219 0
-2176 -2220 0
-2173 -2253 0
-2174 -2254 0
-2175 -2255 0
-2176 -2256 0
-2173 -2813 0
-2174 -2814 0
-2175 -2815 0
-2176 -2816 0
-2173 -3797 0
-2174 -3798 0
-2175 -3799 0
-2176 -3800 0
-2177 -2221 0
-2178 -2222 0
-2179 -2223 0
-2180 -2224 0
-2177 -2257 0
-2178 -2258 0
-2179 -2259 0
-2180 -2260 0
-2177 -2341 0
-2178 -2342 0
-2179 -2343 0
-2180 -2344 0
-2177 -2705 0
-2178 -2706 0
-2179 -2707 0
-2180 -2708 0
-2177 -3805 0
-2178 -3806 0
-2179 -3807 0
-2180 -3808 0
-2181 -2301 0
-2182 -2302 0
-2183 -2303 0
-2184 -2304 0
-2181 -2793 0
-2182 -2794 0
-2183 -2795 0
-2184 -2796 0
-2181 -3837 0
-2182 -3838 0
-2183 -3839 0
-2184 -3840 0
-2185 -2201 0
-2186 -2202 0
-2187 -2203 0
-2188 -2204 0
-2185 -2685 0
-2186 -2686 0
-2187 -2687 0
-2188 -2688 0
-2185 -3801 0
-2186 -3802 0
-2187 -3803 0
-2188 -3804 0
-2189 -2353 0
-2190 -2354 0
-2191 -2355 0
-2192 -2356 0
-2189 -2785 0
-2190 -2786 0
-2191 -2787 0
-2192 -2788 0
-2189 -3813 0
-2190 -3814 0
-2191 -3815 0
-2192 -3816 0
-2193 -2321 0
-2194 -2322 0
-2195 -2323 0
-2196 -2324 0
-2193 -2637 0
-2194 -2638 0
-2195 -2639 0
-2196 -2640 0
-2193 -3809 0
-2194 -3810 0
-2195 -3811 0
-2196 -3812 0
-2197 -2297 0
-2198 -2298 0
-2199 -2299 0
-2200 -2300 0
-2197 -2641 0
-2198 -2642 0
-2199 -2643 0
-2200 -2644 0
-2197 -3833 0
-2198 -3834 0
-2199 -3835 0
-2200 -3836 0
-2201 -2293 0
-2202 -2294 0
-2203 -2295 0
-2204 -2296 0
-2201 -2829 0
-2202 -2830 0
-2203 -2831 0
-2204 -2832 0
-2201 -3801 0
-2202 -3802 0
-2203 -3803 0
-2204 -3804 0
-2205 -2297 0
-2206 -2298 0
-2207 -2299 0
-2208 -2300 0
-2205 -2665 0
-2206 -2666 0
-2207 -2667 0
-2208 -2668 0
-2205 -3833 0
-2206 -3834 0
-2207 -3835 0
-2208 -3836 0
-2209 -2289 0
-2210 -2290 0
-2211 -2291 0
-2212 -2292 0
-2209 -2345 0
-2210 -2346 0
-2211 -2347 0
-2212 -2348 0
-2209 -2605 0
-2210 -2606 0
-2211 -2607 0
-2212 -2608 0
-2209 -3821 0
-2210 -3822 0
-2211 -3823 0
-2212 -3824 0
-2213 -2285 0
-2214 -2286 0
-2215 -2287 0
-2216 -2288 0
-2213 -2349 0
-2214 -2350 0
-2215 -2351 0
-2216 -2352 0
-2213 -2529 0
-2214 -2530 0
-2215 -2531 0
-2216 -2532 0
-2213 -3829 0
-2214 -3830 0
-2215 -3831 0
-2216 -3832 0
-2217 -2269 0
-2218 -2270 0
-2219 -2271 0
-2220 -2272 0
-2217 -2277 0
-2218 -2278 0
-2219 -2279 0
-2220 -2280 0
-2217 -2497 0
-2218 -2498 0
-2219 -2499 0
-2220 -2500 0
-2217 -3797 0
-2218 -3798 0
-2219 -3799 0
-2220 -3800 0
-2221 -2781 0
-2222 -2782 0
-2223 -2783 0
-2224 -2784 0
-2221 -3805 0
-2222 -3806 0
-2223 -3807 0
-2224 -3808 0
-2225 -2281 0
-2226 -2282 0
-2227 -2283 0
-2228 -2284 0
-2225 -2657 0
-2226 -2658 0
-2227 -2659 0
-2228 -2660 0
-2225 -3825 0
-2226 -3826 0
-2227 -3827 0
-2228 -3828 0
-2229 -2241 0
-2230 -2242 0
-2231 -2243 0
-2232 -2244 0
-2229 -2737 0
-2230 -2738 0
-2231 -2739 0
-2232 -2740 0
-2229 -3817 0
-2230 -3818 0
-2231 -3819 0
-2232 -3820 0
-2233 -2281 0
-2234 -2282 0
-2235 -2283 0
-2236 -2284 0
-2233 -2733 0
-2234 -2734 0
-2235 -2735 0
-2236 -2736 0
-2233 -3825 0
-2234 -3826 0
-2235 -3827 0
-2236 -3828 0
-2237 -2477 0
-2238 -2478 0
-2239 -2479 0
-2240 -2480 0
-2237 -3813 0
-2238 -3814 0
-2239 -3815 0
-2240 -3816 0
-2241 -2333 0
-2242 -2334 0
-2243 -2335 0
-2244 -2336 0
-2241 -2485 0
-2242 -2486 0
-2243 -2487 0
-2244 -2488 0
-2241 -3817 0
-2242 -3818 0
-2243 -3819 0
-2244 -3820 0
-2245 -2309 0
-2246 -2310 0
-2247 -2311 0
-2248 -2312 0
-2245 -2349 0
-2246 -2350 0
-2247 -2351 0
-2248 -2352 0
-2245 -2493 0
-2246 -2494 0
-2247 -2495 0
-2248 -2496 0
-2245 -3821 0
-2246 -3822 0
-2247 -3823 0
-2248 -3824 0
-2249 -2337 0
-2250 -2338 0
-2251 -2339 0
-2252 -2340 0
-2249 -2789 0
-2250 -2790 0
-2251 -2791 0
-2252 -2792 0
-2249 -3841 0
-2250 -3842 0
-2251 -3843 0
-2252 -3844 0
-2253 -2273 0
-2254 -2274 0
-2255 -2275 0
-2256 -2276 0
-2253 -2713 0
-2254 -2714 0
-2255 -2715 0
-2256 -2716 0
-2253 -3797 0
-2254 -3798 0
-2255 -3799 0
-2256 -3800 0
-2257 -2341 0
-2258 -2342 0
-2259 -2343 0
-2260 -2344 0
-2257 -2709 0
-2258 -2710 0
-2259 -2711 0
-2260 -2712 0
-2257 -3805 0
-2258 -3806 0
-2259 -3807 0
-2260 -3808 0
-2261 -2293 0
-2262 -2294 0
-2263 -2295 0
-2264 -2296 0
-2261 -2329 0
-2262 -2330 0
-2263 -2331 0
-2264 -2332 0
-2261 -2593 0
-2262 -2594 0
-2263 -2595 0
-2264 -2596 0
-2261 -3801 0
-2262 -3802 0
-2263 -3803 0
-2264 -3804 0
-2265 -2817 0
-2266 -2818 0
-2267 -2819 0
-2268 -2820 0
-2265 -3813 0
-2266 -3814 0
-2267 -3815 0
-2268 -3816 0
-2269 -2277 0
-2270 -2278 0
-2271 -2279 0
-2272 -2280 0
-2269 -2541 0
-2270 -2542 0
-2271 -2543 0
-2272 -2544 0
-2269 -3801 0
-2270 -3802 0
-2271 -3803 0
-2272 -3804 0
-2273 -2277 0
-2274 -2278 0
-2275 -2279 0
-2276 -2280 0
-2273 -2825 0
-2274 -2826 0
-2275 -2827 0
-2276 -2828 0
-2273 -3797 0
-2274 -3798 0
-2275 -3799 0
-2276 -3800 0
-2277 -2833 0
-2278 -2834 0
-2279 -2835 0
-2280 -2836 0
-2277 -3797 0
-2278 -3798 0
-2279 -3799 0
-2280 -3800 0
-2281 -2601 0
-2282 -2602 0
-2283 -2603 0
-2284 -2604 0
-2281 -3825 0
-2282 -3826 0
-2283 -3827 0
-2284 -3828 0
-2285 -2617 0
-2286 -2618 0
-2287 -2619 0
-2288 -2620 0
-2285 -3829 0
-2286 -3830 0
-2287 -3831 0
-2288 -3832 0
-2289 -2325 0
-2290 -2326 0
-2291 -2327 0
-2292 -2328 0
-2289 -2345 0
-2290 -2346 0
-2291 -2347 0
-2292 -2348 0
-2289 -2621 0
-2290 -2622 0
-2291 -2623 0
-2292 -2624 0
-2289 -3821 0
-2290 -3822 0
-2291 -3823 0
-2292 -3824 0
-2293 -2329 0
-2294 -2330 0
-2295 -2331 0
-2296 -2332 0
-2293 -2821 0
-2294 -2822 0
-2295 -2823 0
-2296 -2824 0
-2293 -3801 0
-2294 -3802 0
-2295 -3803 0
-2296 -3804 0
-2297 -2521 0
-2298 -2522 0
-2299 -2523 0
-2300 -2524 0
-2297 -3833 0
-2298 -3834 0
-2299 -3835 0
-2300 -3836 0
-2301 -2701 0
-2302 -2702 0
-2303 -2703 0
-2304 -2704 0
-2301 -3841 0
-2302 -3842 0
-2303 -3843 0
-2304 -3844 0
-2305 -2321 0
-2306 -2322 0
-2307 -2323 0
-2308 -2324 0
-2305 -2669 0
-2306 -2670 0
-2307 -2671 0
-2308 -2672 0
-2305 -3809 0
-2306 -3810 0
-2307 -3811 0
-2308 -3812 0
-2309 -2729 0
-2310 -2730 0
-2311 -2731 0
-2312 -2732 0
-2309 -3821 0
-2310 -3822 0
-2311 -3823 0
-2312 -3824 0
-2313 -2325 0
-2314 -2326 0
-2315 -2327 0
-2316 -2328 0
-2313 -2661 0
-2314 -2662 0
-2315 -2663 0
-2316 -2664 0
-2313 -3829 0
-2314 -3830 0
-2315 -3831 0
-2316 -3832 0
-2317 -2509 0
-2318 -2510 0
-2319 -2511 0
-2320 -2512 0
-2317 -3805 0
-2318 -3806 0
-2319 -3807 0
-2320 -3808 0
-2321 -2525 0
-2322 -2526 0
-2323 -2527 0
-2324 -2528 0
-2321 -3809 0
-2322 -3810 0
-2323 -3811 0
-2324 -3812 0
-2325 -2345 0
-2326 -2346 0
-2327 -2347 0
-2328 -2348 0
-2325 -2517 0
-2326 -2518 0
-2327 -2519 0
-2328 -2520 0
-2325 -3829 0
-2326 -3830 0
-2327 -3831 0
-2328 -3832 0
-2329 -2533 0
-2330 -2534 0
-2331 -2535 0
-2332 -2536 0
-2329 -3797 0
-2330 -3798 0
-2331 -3799 0
-2332 -3800 0
-2333 -2653 0
-2334 -2654 0
-2335 -2655 0
-2336 -2656 0
-2333 -3817 0
-2334 -3818 0
-2335 -3819 0
-2336 -3820 0
-2337 -2745 0
-2338 -2746 0
-2339 -2747 0
-2340 -2748 0
-2337 -3837 0
-2338 -3838 0
-2339 -3839 0
-2340 -3840 0
-2341 -2773 0
-2342 -2774 0
-2343 -2775 0
-2344 -2776 0
-2341 -3813 0
-2342 -3814 0
-2343 -3815 0
-2344 -3816 0
-2345 -2753 0
-2346 -2754 0
-2347 -2755 0
-2348 -2756 0
-2345 -3829 0
-2346 -3830 0
-2347 -3831 0
-2348 -3832 0
-2349 -2681 0
-2350 -2682 0
-2351 -2683 0
-2352 -2684 0
-2349 -3821 0
-2350 -3822 0
-2351 -3823 0
-2352 -3824 0
-2353 -2757 0
-2354 -2758 0
-2355 -2759 0
-2356 -2760 0
-2353 -3805 0
-2354 -3806 0
-2355 -3807 0
-2356 -3808 0
-2357 -2465 0
-2358 -2466 0
-2359 -2467 0
-2360 -2468 0
-2357 -2553 0
-2358 -2554 0
-2359 -2555 0
-2360 -2556 0
-2357 -2601 0
-2358 -2602 0
-2359 -2603 0
-2360 -2604 0
-2357 -2709 0
-2358 -2710 0
-2359 -2711 0
-2360 -2712 0
-2357 -3809 0
-2358 -3810 0
-2359 -3811 0
-2360 -3812 0
-2361 -2521 0
-2362 -2522 0
-2363 -2523 0
-2364 -2524 0
-2361 -2581 0
-2362 -2582 0
-2363 -2583 0
-2364 -2584 0
-2361 -2621 0
-2362 -2622 0
-2363 -2623 0
-2364 -2624 0
-2361 -2785 0
-2362 -2786 0
-2363 -2787 0
-2364 -2788 0
-2361 -3817 0
-2362 -3818 0
-2363 -3819 0
-2364 -3820 0
-2365 -2381 0
-2366 -2382 0
-2367 -2383 0
-2368 -2384 0
-2365 -2645 0
-2366 -2646 0
-2367 -2647 0
-2368 -2648 0
-2365 -2725 0
-2366 -2726 0
-2367 -2727 0
-2368 -2728 0
-2365 -2789 0
-2366 -2790 0
-2367 -2791 0
-2368 -2792 0
-2365 -3829 0
-2366 -3830 0
-2367 -3831 0
-2368 -3832 0
-2369 -2377 0
-2370 -2378 0
-2371 -2379 0
-2372 -2380 0
-2369 -2597 0
-2370 -2598 0
-2371 -2599 0
-2372 -2600 0
-2369 -2649 0
-2370 -2650 0
-2371 -2651 0
-2372 -2652 0
-2369 -2793 0
-2370 -2794 0
-2371 -2795 0
-2372 -2796 0
-2369 -3821 0
-2370 -3822 0
-2371 -3823 0
-2372 -3824 0
-2373 -2577 0
-2374 -2578 0
-2375 -2579 0
-2376 -2580 0
-2373 -2681 0
-2374 -2682 0
-2375 -2683 0
-2376 -2684 0
-2373 -2773 0
-2374 -2774 0
-2375 -2775 0
-2376 -2776 0
-2373 -2809 0
-2374 -2810 0
-2375 -2811 0
-2376 -2812 0
-2373 -3797 0
-2374 -3798 0
-2375 -3799 0
-2376 -3800 0
-2377 -2769 0
-2378 -2770 0
-2379 -2771 0
-2380 -2772 0
-2377 -2793 0
-2378 -2794 0
-2379 -2795 0
-2380 -2796 0
-2377 -2805 0
-2378 -2806 0
-2379 -2807 0
-2380 -2808 0
-2377 -3821 0
-2378 -3822 0
-2379 -3823 0
-2380 -3824 0
-2381 -2513 0
-2382 -2514 0
-2383 -2515 0
-2384 -2516 0
-2381 -2765 0
-2382 -2766 0
-2383 -2767 0
-2384 -2768 0
-2381 -2789 0
-2382 -2790 0
-2383 -2791 0
-2384 -2792 0
-2381 -3829 0
-2382 -3830 0
-2383 -3831 0
-2384 -3832 0
-2385 -2633 0
-2386 -2634 0
-2387 -2635 0
-2388 -2636 0
-2385 -2749 0
-2386 -2750 0
-2387 -2751 0
-2388 -2752 0
-2385 -2753 0
-2386 -2754 0
-2387 -2755 0
-2388 -2756 0
-2385 -2757 0
-2386 -2758 0
-2387 -2759 0
-2388 -2760 0
-2385 -3801 0
-2386 -3802 0
-2387 -3803 0
-2388 -3804 0
-2389 -2441 0
-2390 -2442 0
-2391 -2443 0
-2392 -2444 0
-2389 -2573 0
-2390 -2574 0
-2391 -2575 0
-2392 -2576 0
-2389 -2669 0
-2390 -2670 0
-2391 -2671 0
-2392 -2672 0
-2389 -2797 0
-2390 -2798 0
-2391 -2799 0
-2392 -2800 0
-2389 -3813 0
-2390 -3814 0
-2391 -3815 0
-2392 -3816 0
-2393 -2445 0
-2394 -2446 0
-2395 -2447 0
-2396 -2448 0
-2393 -2497 0
-2394 -2498 0
-2395 -2499 0
-2396 -2500 0
-2393 -2613 0
-2394 -2614 0
-2395 -2615 0
-2396 -2616 0
-2393 -2729 0
-2394 -2730 0
-2395 -2731 0
-2396 -2732 0
-2393 -3841 0
-2394 -3842 0
-2395 -3843 0
-2396 -3844 0
-2397 -2449 0
-2398 -2450 0
-2399 -2451 0
-2400 -2452 0
-2397 -2481 0
-2398 -2482 0
-2399 -2483 0
-2400 -2484 0
-2397 -2661 0
-2398 -2662 0
-2399 -2663 0
-2400 -2664 0
-2397 -2781 0
-2398 -2782 0
-2399 -2783 0
-2400 -2784 0
-2397 -3837 0
-2398 -3838 0
-2399 -3839 0
-2400 -3840 0
-2401 -2453 0
-2402 -2454 0
-2403 -2455 0
-2404 -2456 0
-2401 -2657 0
-2402 -2658 0
-2403 -2659 0
-2404 -2660 0
-2401 -2701 0
-2402 -2702 0
-2403 -2703 0
-2404 -2704 0
-2401 -2821 0
-2402 -2822 0
-2403 -2823 0
-2404 -2824 0
-2401 -3813 0
-2402 -3814 0
-2403 -3815 0
-2404 -3816 0
-2405 -2429 0
-2406 -2430 0
-2407 -2431 0
-2408 -2432 0
-2405 -2453 0
-2406 -2454 0
-2407 -2455 0
-2408 -2456 0
-2405 -2701 0
-2406 -2702 0
-2407 -2703 0
-2408 -2704 0
-2405 -2717 0
-2406 -2718 0
-2407 -2719 0
-2408 -2720 0
-2405 -3805 0
-2406 -3806 0
-2407 -3807 0
-2408 -3808 0
-2409 -2433 0
-2410 -2434 0
-2411 -2435 0
-2412 -2436 0
-2409 -2449 0
-2410 -2450 0
-2411 -2451 0
-2412 -2452 0
-2409 -2545 0
-2410 -2546 0
-2411 -2547 0
-2412 -2548 0
-2409 -2605 0
-2410 -2606 0
-2411 -2607 0
-2412 -2608 0
-2409 -3837 0
-2410 -3838 0
-2411 -3839 0
-2412 -3840 0
-2413 -2437 0
-2414 -2438 0
-2415 -2439 0
-2416 -2440 0
-2413 -2445 0
-2414 -2446 0
-2415 -2447 0
-2416 -2448 0
-2413 -2529 0
-2414 -2530 0
-2415 -2531 0
-2416 -2532 0
-2413 -2585 0
-2414 -2586 0
-2415 -2587 0
-2416 -2588 0
-2413 -3841 0
-2414 -3842 0
-2415 -3843 0
-2416 -3844 0
-2417 -2421 0
-2418 -2422 0
-2419 -2423 0
-2420 -2424 0
-2417 -2441 0
-2418 -2442 0
-2419 -2443 0
-2420 -2444 0
-2417 -2745 0
-2418 -2746 0
-2419 -2747 0
-2420 -2748 0
-2417 -2797 0
-2418 -2798 0
-2419 -2799 0
-2420 -2800 0
-2417 -3805 0
-2418 -3806 0
-2419 -3807 0
-2420 -3808 0
-2421 -2641 0
-2422 -2642 0
-2423 -2643 0
-2424 -2644 0
-2421 -2745 0
-2422 -2746 0
-2423 -2747 0
-2424 -2748 0
-2421 -2833 0
-2422 -2834 0
-2423 -2835 0
-2424 -2836 0
-2421 -3805 0
-2422 -3806 0
-2423 -3807 0
-2424 -3808 0
-2425 -2625 0
-2426 -2626 0
-2427 -2627 0
-2428 -2628 0
-2425 -2637 0
-2426 -2638 0
-2427 -2639 0
-2428 -2640 0
-2425 -2741 0
-2426 -2742 0
-2427 -2743 0
-2428 -2744 0
-2425 -2809 0
-2426 -2810 0
-2427 -2811 0
-2428 -2812 0
-2425 -3797 0
-2426 -3798 0
-2427 -3799 0
-2428 -3800 0
-2429 -2629 0
-2430 -2630 0
-2431 -2631 0
-2432 -2632 0
-2429 -2717 0
-2430 -2718 0
-2431 -2719 0
-2432 -2720 0
-2429 -2737 0
-2430 -2738 0
-2431 -2739 0
-2432 -2740 0
-2429 -3805 0
-2430 -3806 0
-2431 -3807 0
-2432 -3808 0
-2433 -2545 0
-2434 -2546 0
-2435 -2547 0
-2436 -2548 0
-2433 -2593 0
-2434 -2594 0
-2435 -2595 0
-2436 -2596 0
-2433 -2661 0
-2434 -2662 0
-2435 -2663 0
-2436 -2664 0
-2433 -3837 0
-2434 -3838 0
-2435 -3839 0
-2436 -3840 0
-2437 -2585 0
-2438 -2586 0
-2439 -2587 0
-2440 -2588 0
-2437 -2729 0
-2438 -2730 0
-2439 -2731 0
-2440 -2732 0
-2437 -2817 0
-2438 -2818 0
-2439 -2819 0
-2440 -2820 0
-2437 -3841 0
-2438 -3842 0
-2439 -3843 0
-2440 -3844 0
-2441 -2745 0
-2442 -2746 0
-2443 -2747 0
-2444 -2748 0
-2441 -2797 0
-2442 -2798 0
-2443 -2799 0
-2444 -2800 0
-2441 -3813 0
-2442 -3814 0
-2443 -3815 0
-2444 -3816 0
-2445 -2529 0
-2446 -2530 0
-2447 -2531 0
-2448 -2532 0
-2445 -2613 0
-2446 -2614 0
-2447 -2615 0
-2448 -2616 0
-2445 -3841 0
-2446 -3842 0
-2447 -3843 0
-2448 -3844 0
-2449 -2481 0
-2450 -2482 0
-2451 -2483 0
-2452 -2484 0
-2449 -2605 0
-2450 -2606 0
-2451 -2607 0
-2452 -2608 0
-2449 -3837 0
-2450 -3838 0
-2451 -3839 0
-2452 -3840 0
-2453 -2701 0
-2454 -2702 0
-2455 -2703 0
-2456 -2704 0
-2453 -2717 0
-2454 -2718 0
-2455 -2719 0
-2456 -2720 0
-2453 -3813 0
-2454 -3814 0
-2455 -3815 0
-2456 -3816 0
-2457 -2569 0
-2458 -2570 0
-2459 -2571 0
-2460 -2572 0
-2457 -2653 0
-2458 -2654 0
-2459 -2655 0
-2460 -2656 0
-2457 -2697 0
-2458 -2698 0
-2459 -2699 0
-2460 -2700 0
-2457 -2749 0
-2458 -2750 0
-2459 -2751 0
-2460 -2752 0
-2457 -3801 0
-2458 -3802 0
-2459 -3803 0
-2460 -3804 0
-2461 -2477 0
-2462 -2478 0
-2463 -2479 0
-2464 -2480 0
-2461 -2517 0
-2462 -2518 0
-2463 -2519 0
-2464 -2520 0
-2461 -2713 0
-2462 -2714 0
-2463 -2715 0
-2464 -2716 0
-2461 -2761 0
-2462 -2762 0
-2463 -2763 0
-2464 -2764 0
-2461 -3833 0
-2462 -3834 0
-2463 -3835 0
-2464 -3836 0
-2465 -2589 0
-2466 -2590 0
-2467 -2591 0
-2468 -2592 0
-2465 -2709 0
-2466 -2710 0
-2467 -2711 0
-2468 -2712 0
-2465 -2721 0
-2466 -2722 0
-2467 -2723 0
-2468 -2724 0
-2465 -3809 0
-2466 -3810 0
-2467 -3811 0
-2468 -3812 0
-2469 -2597 0
-2470 -2598 0
-2471 -2599 0
-2472 -2600 0
-2469 -2649 0
-2470 -2650 0
-2471 -2651 0
-2472 -2652 0
-2469 -2689 0
-2470 -2690 0
-2471 -2691 0
-2472 -2692 0
-2469 -2825 0
-2470 -2826 0
-2471 -2827 0
-2472 -2828 0
-2469 -3829 0
-2470 -3830 0
-2471 -3831 0
-2472 -3832 0
-2473 -2493 0
-2474 -2494 0
-2475 -2495 0
-2476 -2496 0
-2473 -2509 0
-2474 -2510 0
-2475 -2511 0
-2476 -2512 0
-2473 -2685 0
-2474 -2686 0
-2475 -2687 0
-2476 -2688 0
-2473 -2777 0
-2474 -2778 0
-2475 -2779 0
-2476 -2780 0
-2473 -3825 0
-2474 -3826 0
-2475 -3827 0
-2476 -3828 0
-2477 -2485 0
-2478 -2486 0
-2479 -2487 0
-2480 -2488 0
-2477 -2549 0
-2478 -2550 0
-2479 -2551 0
-2480 -2552 0
-2477 -2713 0
-2478 -2714 0
-2479 -2715 0
-2480 -2716 0
-2477 -3833 0
-2478 -3834 0
-2479 -3835 0
-2480 -3836 0
-2481 -2605 0
-2482 -2606 0
-2483 -2607 0
-2484 -2608 0
-2481 -2781 0
-2482 -2782 0
-2483 -2783 0
-2484 -2784 0
-2481 -3841 0
-2482 -3842 0
-2483 -3843 0
-2484 -3844 0
-2485 -2541 0
-2486 -2542 0
-2487 -2543 0
-2488 -2544 0
-2485 -2549 0
-2486 -2550 0
-2487 -2551 0
-2488 -2552 0
-2485 -2561 0
-2486 -2562 0
-2487 -2563 0
-2488 -2564 0
-2485 -3833 0
-2486 -3834 0
-2487 -3835 0
-2488 -3836 0
-2489 -2581 0
-2490 -2582 0
-2491 -2583 0
-2492 -2584 0
-2489 -2609 0
-2490 -2610 0
-2491 -2611 0
-2492 -2612 0
-2489 -2673 0
-2490 -2674 0
-2491 -2675 0
-2492 -2676 0
-2489 -2801 0
-2490 -2802 0
-2491 -2803 0
-2492 -2804 0
-2489 -3817 0
-2490 -3818 0
-2491 -3819 0
-2492 -3820 0
-2493 -2533 0
-2494 -2534 0
-2495 -2535 0
-2496 -2536 0
-2493 -2677 0
-2494 -2678 0
-2495 -2679 0
-2496 -2680 0
-2493 -2777 0
-2494 -2778 0
-2495 -2779 0
-2496 -2780 0
-2493 -3825 0
-2494 -3826 0
-2495 -3827 0
-2496 -3828 0
-2497 -2613 0
-2498 -2614 0
-2499 -2615 0
-2500 -2616 0
-2497 -2729 0
-2498 -2730 0
-2499 -2731 0
-2500 -2732 0
-2497 -2817 0
-2498 -2818 0
-2499 -2819 0
-2500 -2820 0
-2497 -3837 0
-2498 -3838 0
-2499 -3839 0
-2500 -3840 0
-2501 -2525 0
-2502 -2526 0
-2503 -2527 0
-2504 -2528 0
-2501 -2533 0
-2502 -2534 0
-2503 -2535 0
-2504 -2536 0
-2501 -2617 0
-2502 -2618 0
-2503 -2619 0
-2504 -2620 0
-2501 -2677 0
-2502 -2678 0
-2503 -2679 0
-2504 -2680 0
-2501 -3833 0
-2502 -3834 0
-2503 -3835 0
-2504 -3836 0
-2505 -2521 0
-2506 -2522 0
-2507 -2523 0
-2508 -2524 0
-2505 -2609 0
-2506 -2610 0
-2507 -2611 0
-2508 -2612 0
-2505 -2621 0
-2506 -2622 0
-2507 -2623 0
-2508 -2624 0
-2505 -2673 0
-2506 -2674 0
-2507 -2675 0
-2508 -2676 0
-2505 -3809 0
-2506 -3810 0
-2507 -3811 0
-2508 -3812 0
-2509 -2525 0
-2510 -2526 0
-2511 -2527 0
-2512 -2528 0
-2509 -2617 0
-2510 -2618 0
-2511 -2619 0
-2512 -2620 0
-2509 -2685 0
-2510 -2686 0
-2511 -2687 0
-2512 -2688 0
-2509 -3825 0
-2510 -3826 0
-2511 -3827 0
-2512 -3828 0
-2513 -2557 0
-2514 -2558 0
-2515 -2559 0
-2516 -2560 0
-2513 -2765 0
-2514 -2766 0
-2515 -2767 0
-2516 -2768 0
-2513 -2789 0
-2514 -2790 0
-2515 -2791 0
-2516 -2792 0
-2513 -3821 0
-2514 -3822 0
-2515 -3823 0
-2516 -3824 0
-2517 -2541 0
-2518 -2542 0
-2519 -2543 0
-2520 -2544 0
-2517 -2705 0
-2518 -2706 0
-2519 -2707 0
-2520 -2708 0
-2517 -2761 0
-2518 -2762 0
-2519 -2763 0
-2520 -2764 0
-2517 -3833 0
-2518 -3834 0
-2519 -3835 0
-2520 -3836 0
-2521 -2609 0
-2522 -2610 0
-2523 -2611 0
-2524 -2612 0
-2521 -2621 0
-2522 -2622 0
-2523 -2623 0
-2524 -2624 0
-2521 -3817 0
-2522 -3818 0
-2523 -3819 0
-2524 -3820 0
-2525 -2533 0
-2526 -2534 0
-2527 -2535 0
-2528 -2536 0
-2525 -2617 0
-2526 -2618 0
-2527 -2619 0
-2528 -2620 0
-2525 -3825 0
-2526 -3826 0
-2527 -3827 0
-2528 -3828 0
-2529 -2585 0
-2530 -2586 0
-2531 -2587 0
-2532 -2588 0
-2529 -2613 0
-2530 -2614 0
-2531 -2615 0
-2532 -2616 0
-2529 -3837 0
-2530 -3838 0
-2531 -3839 0
-2532 -3840 0
-2533 -2677 0
-2534 -2678 0
-2535 -2679 0
-2536 -2680 0
-2533 -3825 0
-2534 -3826 0
-2535 -3827 0
-2536 -3828 0
-2537 -2565 0
-2538 -2566 0
-2539 -2567 0
-2540 -2568 0
-2537 -2589 0
-2538 -2590 0
-2539 -2591 0
-2540 -2592 0
-2537 -2601 0
-2538 -2602 0
-2539 -2603 0
-2540 -2604 0
-2537 -2813 0
-2538 -2814 0
-2539 -2815 0
-2540 -2816 0
-2537 -3809 0
-2538 -3810 0
-2539 -3811 0
-2540 -3812 0
-2541 -2561 0
-2542 -2562 0
-2543 -2563 0
-2544 -2564 0
-2541 -2705 0
-2542 -2706 0
-2543 -2707 0
-2544 -2708 0
-2541 -3833 0
-2542 -3834 0
-2543 -3835 0
-2544 -3836 0
-2545 -2593 0
-2546 -2594 0
-2547 -2595 0
-2548 -2596 0
-2545 -2605 0
-2546 -2606 0
-2547 -2607 0
-2548 -2608 0
-2545 -3841 0
-2546 -3842 0
-2547 -3843 0
-2548 -3844 0
-2549 -2561 0
-2550 -2562 0
-2551 -2563 0
-2552 -2564 0
-2549 -2713 0
-2550 -2714 0
-2551 -2715 0
-2552 -2716 0
-2549 -3825 0
-2550 -3826 0
-2551 -3827 0
-2552 -3828 0
-2553 -2565 0
-2554 -2566 0
-2555 -2567 0
-2556 -2568 0
-2553 -2601 0
-2554 -2602 0
-2555 -2603 0
-2556 -2604 0
-2553 -2709 0
-2554 -2710 0
-2555 -2711 0
-2556 -2712 0
-2553 -3817 0
-2554 -3818 0
-2555 -3819 0
-2556 -3820 0
-2557 -2693 0
-2558 -2694 0
-2559 -2695 0
-2560 -2696 0
-2557 -2765 0
-2558 -2766 0
-2559 -2767 0
-2560 -2768 0
-2557 -2829 0
-2558 -2830 0
-2559 -2831 0
-2560 -2832 0
-2557 -3821 0
-2558 -3822 0
-2559 -3823 0
-2560 -3824 0
-2561 -2705 0
-2562 -2706 0
-2563 -2707 0
-2564 -2708 0
-2561 -3825 0
-2562 -3826 0
-2563 -3827 0
-2564 -3828 0
-2565 -2601 0
-2566 -2602 0
-2567 -2603 0
-2568 -2604 0
-2565 -2813 0
-2566 -2814 0
-2567 -2815 0
-2568 -2816 0
-2565 -3817 0
-2566 -3818 0
-2567 -3819 0
-2568 -3820 0
-2569 -2633 0
-2570 -2634 0
-2571 -2635 0
-2572 -2636 0
-2569 -2653 0
-2570 -2654 0
-2571 -2655 0
-2572 -2656 0
-2569 -2733 0
-2570 -2734 0
-2571 -2735 0
-2572 -2736 0
-2569 -3801 0
-2570 -3802 0
-2571 -3803 0
-2572 -3804 0
-2573 -2669 0
-2574 -2670 0
-2575 -2671 0
-2576 -2672 0
-2573 -2797 0
-2574 -2798 0
-2575 -2799 0
-2576 -2800 0
-2573 -2833 0
-2574 -2834 0
-2575 -2835 0
-2576 -2836 0
-2573 -3805 0
-2574 -3806 0
-2575 -3807 0
-2576 -3808 0
-2577 -2625 0
-2578 -2626 0
-2579 -2627 0
-2580 -2628 0
-2577 -2665 0
-2578 -2666 0
-2579 -2667 0
-2580 -2668 0
-2577 -2681 0
-2578 -2682 0
-2579 -2683 0
-2580 -2684 0
-2577 -3797 0
-2578 -3798 0
-2579 -3799 0
-2580 -3800 0
-2581 -2785 0
-2582 -2786 0
-2583 -2787 0
-2584 -2788 0
-2581 -2801 0
-2582 -2802 0
-2583 -2803 0
-2584 -2804 0
-2581 -3817 0
-2582 -3818 0
-2583 -3819 0
-2584 -3820 0
-2585 -2817 0
-2586 -2818 0
-2587 -2819 0
-2588 -2820 0
-2585 -3837 0
-2586 -3838 0
-2587 -3839 0
-2588 -3840 0
-2589 -2721 0
-2590 -2722 0
-2591 -2723 0
-2592 -2724 0
-2589 -2813 0
-2590 -2814 0
-2591 -2815 0
-2592 -2816 0
-2589 -3809 0
-2590 -3810 0
-2591 -3811 0
-2592 -3812 0
-2593 -2661 0
-2594 -2662 0
-2595 -2663 0
-2596 -2664 0
-2593 -2781 0
-2594 -2782 0
-2595 -2783 0
-2596 -2784 0
-2593 -3841 0
-2594 -3842 0
-2595 -3843 0
-2596 -3844 0
-2597 -2649 0
-2598 -2650 0
-2599 -2651 0
-2600 -2652 0
-2597 -2793 0
-2598 -2794 0
-2599 -2795 0
-2600 -2796 0
-2597 -3829 0
-2598 -3830 0
-2599 -3831 0
-2600 -3832 0
-2601 -3809 0
-2602 -3810 0
-2603 -3811 0
-2604 -3812 0
-2605 -3841 0
-2606 -3842 0
-2607 -3843 0
-2608 -3844 0
-2609 -2673 0
-2610 -2674 0
-2611 -2675 0
-2612 -2676 0
-2609 -3817 0
-2610 -3818 0
-2611 -3819 0
-2612 -3820 0
-2613 -3837 0
-2614 -3838 0
-2615 -3839 0
-2616 -3840 0
-2617 -2685 0
-2618 -2686 0
-2619 -2687 0
-2620 -2688 0
-2617 -3833 0
-2618 -3834 0
-2619 -3835 0
-2620 -3836 0
-2621 -2785 0
-2622 -2786 0
-2623 -2787 0
-2624 -2788 0
-2621 -3809 0
-2622 -3810 0
-2623 -3811 0
-2624 -3812 0
-2625 -2637 0
-2626 -2638 0
-2627 -2639 0
-2628 -2640 0
-2625 -2665 0
-2626 -2666 0
-2627 -2667 0
-2628 -2668 0
-2625 -3797 0
-2626 -3798 0
-2627 -3799 0
-2628 -3800 0
-2629 -2717 0
-2630 -2718 0
-2631 -2719 0
-2632 -2720 0
-2629 -2737 0
-2630 -2738 0
-2631 -2739 0
-2632 -2740 0
-2629 -2821 0
-2630 -2822 0
-2631 -2823 0
-2632 -2824 0
-2629 -3813 0
-2630 -3814 0
-2631 -3815 0
-2632 -3816 0
-2633 -2733 0
-2634 -2734 0
-2635 -2735 0
-2636 -2736 0
-2633 -2753 0
-2634 -2754 0
-2635 -2755 0
-2636 -2756 0
-2633 -3801 0
-2634 -3802 0
-2635 -3803 0
-2636 -3804 0
-2637 -2665 0
-2638 -2666 0
-2639 -2667 0
-2640 -2668 0
-2637 -2741 0
-2638 -2742 0
-2639 -2743 0
-2640 -2744 0
-2637 -3801 0
-2638 -3802 0
-2639 -3803 0
-2640 -3804 0
-2641 -2669 0
-2642 -2670 0
-2643 -2671 0
-2644 -2672 0
-2641 -2745 0
-2642 -2746 0
-2643 -2747 0
-2644 -2748 0
-2641 -2833 0
-2642 -2834 0
-2643 -2835 0
-2644 -2836 0
-2641 -3813 0
-2642 -3814 0
-2643 -3815 0
-2644 -3816 0
-2645 -2693 0
-2646 -2694 0
-2647 -2695 0
-2648 -2696 0
-2645 -2725 0
-2646 -2726 0
-2647 -2727 0
-2648 -2728 0
-2645 -2829 0
-2646 -2830 0
-2647 -2831 0
-2648 -2832 0
-2645 -3829 0
-2646 -3830 0
-2647 -3831 0
-2648 -3832 0
-2649 -2689 0
-2650 -2690 0
-2651 -2691 0
-2652 -2692 0
-2649 -3821 0
-2650 -3822 0
-2651 -3823 0
-2652 -3824 0
-2653 -2697 0
-2654 -2698 0
-2655 -2699 0
-2656 -2700 0
-2653 -2733 0
-2654 -2734 0
-2655 -2735 0
-2656 -2736 0
-2653 -3797 0
-2654 -3798 0
-2655 -3799 0
-2656 -3800 0
-2657 -2701 0
-2658 -2702 0
-2659 -2703 0
-2660 -2704 0
-2657 -2737 0
-2658 -2738 0
-2659 -2739 0
-2660 -2740 0
-2657 -2821 0
-2658 -2822 0
-2659 -2823 0
-2660 -2824 0
-2657 -3805 0
-2658 -3806 0
-2659 -3807 0
-2660 -3808 0
-2661 -2781 0
-2662 -2782 0
-2663 -2783 0
-2664 -2784 0
-2661 -3837 0
-2662 -3838 0
-2663 -3839 0
-2664 -3840 0
-2665 -2681 0
-2666 -2682 0
-2667 -2683 0
-2668 -2684 0
-2665 -3801 0
-2666 -3802 0
-2667 -3803 0
-2668 -3804 0
-2669 -2833 0
-2670 -2834 0
-2671 -2835 0
-2672 -2836 0
-2669 -3813 0
-2670 -3814 0
-2671 -3815 0
-2672 -3816 0
-2673 -2801 0
-2674 -2802 0
-2675 -2803 0
-2676 -2804 0
-2673 -3809 0
-2674 -3810 0
-2675 -3811 0
-2676 -3812 0
-2677 -2777 0
-2678 -2778 0
-2679 -2779 0
-2680 -2780 0
-2677 -3833 0
-2678 -3834 0
-2679 -3835 0
-2680 -3836 0
-2681 -2773 0
-2682 -2774 0
-2683 -2775 0
-2684 -2776 0
-2681 -3801 0
-2682 -3802 0
-2683 -3803 0
-2684 -3804 0
-2685 -2777 0
-2686 -2778 0
-2687 -2779 0
-2688 -2780 0
-2685 -3833 0
-2686 -3834 0
-2687 -3835 0
-2688 -3836 0
-2689 -2769 0
-2690 -2770 0
-2691 -2771 0
-2692 -2772 0
-2689 -2825 0
-2690 -2826 0
-2691 -2827 0
-2692 -2828 0
-2689 -3821 0
-2690 -3822 0
-2691 -3823 0
-2692 -3824 0
-2693 -2765 0
-2694 -2766 0
-2695 -2767 0
-2696 -2768 0
-2693 -2829 0
-2694 -2830 0
-2695 -2831 0
-2696 -2832 0
-2693 -3829 0
-2694 -3830 0
-2695 -3831 0
-2696 -3832 0
-2697 -2749 0
-2698 -2750 0
-2699 -2751 0
-2700 -2752 0
-2697 -2757 0
-2698 -2758 0
-2699 -2759 0
-2700 -2760 0
-2697 -3797 0
-2698 -3798 0
-2699 -3799 0
-2700 -3800 0
-2701 -3805 0
-2702 -3806 0
-2703 -3807 0
-2704 -3808 0
-2705 -2761 0
-2706 -2762 0
-2707 -2763 0
-2708 -2764 0
-2705 -3825 0
-2706 -3826 0
-2707 -3827 0
-2708 -3828 0
-2709 -2721 0
-2710 -2722 0
-2711 -2723 0
-2712 -2724 0
-2709 -3817 0
-2710 -3818 0
-2711 -3819 0
-2712 -3820 0
-2713 -2761 0
-2714 -2762 0
-2715 -2763 0
-2716 -2764 0
-2713 -3825 0
-2714 -3826 0
-2715 -3827 0
-2716 -3828 0
-2717 -3813 0
-2718 -3814 0
-2719 -3815 0
-2720 -3816 0
-2721 -2813 0
-2722 -2814 0
-2723 -2815 0
-2724 -2816 0
-2721 -3817 0
-2722 -3818 0
-2723 -3819 0
-2724 -3820 0
-2725 -2789 0
-2726 -2790 0
-2727 -2791 0
-2728 -2792 0
-2725 -2829 0
-2726 -2830 0
-2727 -2831 0
-2728 -2832 0
-2725 -3821 0
-2726 -3822 0
-2727 -3823 0
-2728 -3824 0
-2729 -2817 0
-2730 -2818 0
-2731 -2819 0
-2732 -2820 0
-2729 -3841 0
-2730 -3842 0
-2731 -3843 0
-2732 -3844 0
-2733 -2753 0
-2734 -2754 0
-2735 -2755 0
-2736 -2756 0
-2733 -3797 0
-2734 -3798 0
-2735 -3799 0
-2736 -3800 0
-2737 -2821 0
-2738 -2822 0
-2739 -2823 0
-2740 -2824 0
-2737 -3805 0
-2738 -3806 0
-2739 -3807 0
-2740 -3808 0
-2741 -2773 0
-2742 -2774 0
-2743 -2775 0
-2744 -2776 0
-2741 -2809 0
-2742 -2810 0
-2743 -2811 0
-2744 -2812 0
-2741 -3801 0
-2742 -3802 0
-2743 -3803 0
-2744 -3804 0
-2745 -3813 0
-2746 -3814 0
-2747 -3815 0
-2748 -3816 0
-2749 -2757 0
-2750 -2758 0
-2751 -2759 0
-2752 -2760 0
-2749 -3801 0
-2750 -3802 0
-2751 -3803 0
-2752 -3804 0
-2753 -2757 0
-2754 -2758 0
-2755 -2759 0
-2756 -2760 0
-2753 -3797 0
-2754 -3798 0
-2755 -3799 0
-2756 -3800 0
-2757 -3797 0
-2758 -3798 0
-2759 -3799 0
-2760 -3800 0
-2761 -3825 0
-2762 -3826 0
-2763 -3827 0
-2764 -3828 0
-2765 -3829 0
-2766 -3830 0
-2767 -3831 0
-2768 -3832 0
-2769 -2805 0
-2770 -2806 0
-2771 -2807 0
-2772 -2808 0
-2769 -2825 0
-2770 -2826 0
-2771 -2827 0
-2772 -2828 0
-2769 -3821 0
-2770 -3822 0
-2771 -3823 0
-2772 -3824 0
-2773 -2809 0
-2774 -2810 0
-2775 -2811 0
-2776 -2812 0
-2773 -3801 0
-2774 -3802 0
-2775 -3803 0
-2776 -3804 0
-2777 -3833 0
-2778 -3834 0
-2779 -3835 0
-2780 -3836 0
-2781 -3841 0
-2782 -3842 0
-2783 -3843 0
-2784 -3844 0
-2785 -2801 0
-2786 -2802 0
-2787 -2803 0
-2788 -2804 0
-2785 -3809 0
-2786 -3810 0
-2787 -3811 0
-2788 -3812 0
-2789 -3821 0
-2790 -3822 0
-2791 -3823 0
-2792 -3824 0
-2793 -2805 0
-2794 -2806 0
-2795 -2807 0
-2796 -2808 0
-2793 -3829 0
-2794 -3830 0
-2795 -3831 0
-2796 -3832 0
-2797 -3805 0
-2798 -3806 0
-2799 -3807 0
-2800 -3808 0
-2801 -3809 0
-2802 -3810 0
-2803 -3811 0
-2804 -3812 0
-2805 -2825 0
-2806 -2826 0
-2807 -2827 0
-2808 -2828 0
-2805 -3829 0
-2806 -3830 0
-2807 -3831 0
-2808 -3832 0
-2809 -3797 0
-2810 -3798 0
-2811 -3799 0
-2812 -3800 0
-2813 -3817 0
-2814 -3818 0
-2815 -3819 0
-2816 -3820 0
-2817 -3837 0
-2818 -3838 0
-2819 -3839 0
-2820 -3840 0
-2821 -3813 0
-2822 -3814 0
-2823 -3815 0
-2824 -3816 0
-2825 -3829 0
-2826 -3830 0
-2827 -3831 0
-2828 -3832 0
-2829 -3821 0
-2830 -3822 0
-2831 -3823 0
-2832 -3824 0
-2833 -3805 0
-2834 -3806 0
-2835 -3807 0
-2836 -3808 0
-2837 -2893 0
-2838 -2894 0
-2839 -2895 0
-2840 -2896 0
-2837 -3021 0
-2838 -3022 0
-2839 -3023 0
-2840 -3024 0
-2837 -3305 0
-2838 -3306 0
-2839 -3307 0
-2840 -3308 0
-2837 -3313 0
-2838 -3314 0
-2839 -3315 0
-2840 -3316 0
-2837 -3689 0
-2838 -3690 0
-2839 -3691 0
-2840 -3692 0
-2837 -3737 0
-2838 -3738 0
-2839 -3739 0
-2840 -3740 0
-2837 -3797 0
-2838 -3798 0
-2839 -3799 0
-2840 -3800 0
-2841 -2929 0
-2842 -2930 0
-2843 -2931 0
-2844 -2932 0
-2841 -3013 0
-2842 -3014 0
-2843 -3015 0
-2844 -3016 0
-2841 -3301 0
-2842 -3302 0
-2843 -3303 0
-2844 -3304 0
-2841 -3309 0
-2842 -3310 0
-2843 -3311 0
-2844 -3312 0
-2841 -3469 0
-2842 -3470 0
-2843 -3471 0
-2844 -3472 0
-2841 -3573 0
-2842 -3574 0
-2843 -3575 0
-2844 -3576 0
-2841 -3801 0
-2842 -3802 0
-2843 -3803 0
-2844 -3804 0
-2845 -3017 0
-2846 -3018 0
-2847 -3019 0
-2848 -3020 0
-2845 -3185 0
-2846 -3186 0
-2847 -3187 0
-2848 -3188 0
-2845 -3253 0
-2846 -3254 0
-2847 -3255 0
-2848 -3256 0
-2845 -3261 0
-2846 -3262 0
-2847 -3263 0
-2848 -3264 0
-2845 -3417 0
-2846 -3418 0
-2847 -3419 0
-2848 -3420 0
-2845 -3425 0
-2846 -3426 0
-2847 -3427 0
-2848 -3428 0
-2845 -3805 0
-2846 -3806 0
-2847 -3807 0
-2848 -3808 0
-2849 -2921 0
-2850 -2922 0
-2851 -2923 0
-2852 -2924 0
-2849 -2977 0
-2850 -2978 0
-2851 -2979 0
-2852 -2980 0
-2849 -3021 0
-2850 -3022 0
-2851 -3023 0
-2852 -3024 0
-2849 -3293 0
-2850 -3294 0
-2851 -3295 0
-2852 -3296 0
-2849 -3361 0
-2850 -3362 0
-2851 -3363 0
-2852 -3364 0
-2849 -3421 0
-2850 -3422 0
-2851 -3423 0
-2852 -3424 0
-2849 -3797 0
-2850 -3798 0
-2851 -3799 0
-2852 -3800 0
-2853 -3025 0
-2854 -3026 0
-2855 -3027 0
-2856 -3028 0
-2853 -3149 0
-2854 -3150 0
-2855 -3151 0
-2856 -3152 0
-2853 -3249 0
-2854 -3250 0
-2855 -3251 0
-2856 -3252 0
-2853 -3257 0
-2854 -3258 0
-2855 -3259 0
-2856 -3260 0
-2853 -3501 0
-2854 -3502 0
-2855 -3503 0
-2856 -3504 0
-2853 -3741 0
-2854 -3742 0
-2855 -3743 0
-2856 -3744 0
-2853 -3809 0
-2854 -3810 0
-2855 -3811 0
-2856 -3812 0
-2857 -3089 0
-2858 -3090 0
-2859 -3091 0
-2860 -3092 0
-2857 -3157 0
-2858 -3158 0
-2859 -3159 0
-2860 -3160 0
-2857 -3237 0
-2858 -3238 0
-2859 -3239 0
-2860 -3240 0
-2857 -3297 0
-2858 -3298 0
-2859 -3299 0
-2860 -3300 0
-2857 -3513 0
-2858 -3514 0
-2859 -3515 0
-2860 -3516 0
-2857 -3693 0
-2858 -3694 0
-2859 -3695 0
-2860 -3696 0
-2857 -3813 0
-2858 -3814 0
-2859 -3815 0
-2860 -3816 0
-2861 -2885 0
-2862 -2886 0
-2863 -2887 0
-2864 -2888 0
-2861 -3013 0
-2862 -3014 0
-2863 -3015 0
-2864 -3016 0
-2861 -3073 0
-2862 -3074 0
-2863 -3075 0
-2864 -3076 0
-2861 -3153 0
-2862 -3154 0
-2863 -3155 0
-2864 -3156 0
-2861 -3509 0
-2862 -3510 0
-2863 -3511 0
-2864 -3512 0
-2861 -3697 0
-2862 -3698 0
-2863 -3699 0
-2864 -3700 0
-2861 -3801 0
-2862 -3802 0
-2863 -3803 0
-2864 -3804 0
-2865 -3093 0
-2866 -3094 0
-2867 -3095 0
-2868 -3096 0
-2865 -3125 0
-2866 -3126 0
-2867 -3127 0
-2868 -3128 0
-2865 -3217 0
-2866 -3218 0
-2867 -3219 0
-2868 -3220 0
-2865 -3241 0
-2866 -3242 0
-2867 -3243 0
-2868 -3244 0
-2865 -3409 0
-2866 -3410 0
-2867 -3411 0
-2868 -3412 0
-2865 -3509 0
-2866 -3510 0
-2867 -3511 0
-2868 -3512 0
-2865 -3817 0
-2866 -3818 0
-2867 -3819 0
-2868 -3820 0
-2869 -2969 0
-2870 -2970 0
-2871 -2971 0
-2872 -2972 0
-2869 -3029 0
-2870 -3030 0
-2871 -3031 0
-2872 -3032 0
-2869 -3085 0
-2870 -3086 0
-2871 -3087 0
-2872 -3088 0
-2869 -3233 0
-2870 -3234 0
-2871 -3235 0
-2872 -3236 0
-2869 -3481 0
-2870 -3482 0
-2871 -3483 0
-2872 -3484 0
-2869 -3585 0
-2870 -3586 0
-2871 -3587 0
-2872 -3588 0
-2869 -3821 0
-2870 -3822 0
-2871 -3823 0
-2872 -3824 0
-2873 -3121 0
-2874 -3122 0
-2875 -3123 0
-2876 -3124 0
-2873 -3245 0
-2874 -3246 0
-2875 -3247 0
-2876 -3248 0
-2873 -3281 0
-2874 -3282 0
-2875 -3283 0
-2876 -3284 0
-2873 -3289 0
-2874 -3290 0
-2875 -3291 0
-2876 -3292 0
-2873 -3589 0
-2874 -3590 0
-2875 -3591 0
-2876 -3592 0
-2873 -3605 0
-2874 -3606 0
-2875 -3607 0
-2876 -3608 0
-2873 -3825 0
-2874 -3826 0
-2875 -3827 0
-2876 -3828 0
-2877 -2897 0
-2878 -2898 0
-2879 -2899 0
-2880 -2900 0
-2877 -3117 0
-2878 -3118 0
-2879 -3119 0
-2880 -3120 0
-2877 -3249 0
-2878 -3250 0
-2879 -3251 0
-2880 -3252 0
-2877 -3257 0
-2878 -3258 0
-2879 -3259 0
-2880 -3260 0
-2877 -3593 0
-2878 -3594 0
-2879 -3595 0
-2880 -3596 0
-2877 -3609 0
-2878 -3610 0
-2879 -3611 0
-2880 -3612 0
-2877 -3817 0
-2878 -3818 0
-2879 -3819 0
-2880 -3820 0
-2881 -2905 0
-2882 -2906 0
-2883 -2907 0
-2884 -2908 0
-2881 -2973 0
-2882 -2974 0
-2883 -2975 0
-2884 -2976 0
-2881 -3033 0
-2882 -3034 0
-2883 -3035 0
-2884 -3036 0
-2881 -3209 0
-2882 -3210 0
-2883 -3211 0
-2884 -3212 0
-2881 -3537 0
-2882 -3538 0
-2883 -3539 0
-2884 -3540 0
-2881 -3569 0
-2882 -3570 0
-2883 -3571 0
-2884 -3572 0
-2881 -3821 0
-2882 -3822 0
-2883 -3823 0
-2884 -3824 0
-2885 -2929 0
-2886 -2930 0
-2887 -2931 0
-2888 -2932 0
-2885 -3153 0
-2886 -3154 0
-2887 -3155 0
-2888 -3156 0
-2885 -3165 0
-2886 -3166 0
-2887 -3167 0
-2888 -3168 0
-2885 -3393 0
-2886 -3394 0
-2887 -3395 0
-2888 -3396 0
-2885 -3429 0
-2886 -3430 0
-2887 -3431 0
-2888 -3432 0
-2885 -3801 0
-2886 -3802 0
-2887 -3803 0
-2888 -3804 0
-2889 -2957 0
-2890 -2958 0
-2891 -2959 0
-2892 -2960 0
-2889 -3037 0
-2890 -3038 0
-2891 -3039 0
-2892 -3040 0
-2889 -3189 0
-2890 -3190 0
-2891 -3191 0
-2892 -3192 0
-2889 -3253 0
-2890 -3254 0
-2891 -3255 0
-2892 -3256 0
-2889 -3461 0
-2890 -3462 0
-2891 -3463 0
-2892 -3464 0
-2889 -3597 0
-2890 -3598 0
-2891 -3599 0
-2892 -3600 0
-2889 -3805 0
-2890 -3806 0
-2891 -3807 0
-2892 -3808 0
-2893 -2921 0
-2894 -2922 0
-2895 -2923 0
-2896 -2924 0
-2893 -3193 0
-2894 -3194 0
-2895 -3195 0
-2896 -3196 0
-2893 -3305 0
-2894 -3306 0
-2895 -3307 0
-2896 -3308 0
-2893 -3465 0
-2894 -3466 0
-2895 -3467 0
-2896 -3468 0
-2893 -3601 0
-2894 -3602 0
-2895 -3603 0
-2896 -3604 0
-2893 -3797 0
-2894 -3798 0
-2895 -3799 0
-2896 -3800 0
-2897 -3077 0
-2898 -3078 0
-2899 -3079 0
-2900 -3080 0
-2897 -3117 0
-2898 -3118 0
-2899 -3119 0
-2900 -3120 0
-2897 -3257 0
-2898 -3258 0
-2899 -3259 0
-2900 -3260 0
-2897 -3325 0
-2898 -3326 0
-2899 -3327 0
-2900 -3328 0
-2897 -3461 0
-2898 -3462 0
-2899 -3463 0
-2900 -3464 0
-2897 -3809 0
-2898 -3810 0
-2899 -3811 0
-2900 -3812 0
-2901 -2937 0
-2902 -2938 0
-2903 -2939 0
-2904 -2940 0
-2901 -2997 0
-2902 -2998 0
-2903 -2999 0
-2904 -3000 0
-2901 -3101 0
-2902 -3102 0
-2903 -3103 0
-2904 -3104 0
-2901 -3141 0
-2902 -3142 0
-2903 -3143 0
-2904 -3144 0
-2901 -3733 0
-2902 -3734 0
-2903 -3735 0
-2904 -3736 0
-2901 -3761 0
-2902 -3762 0
-2903 -3763 0
-2904 -3764 0
-2901 -3829 0
-2902 -3830 0
-2903 -3831 0
-2904 -3832 0
-2905 -3069 0
-2906 -3070 0
-2907 -3071 0
-2908 -3072 0
-2905 -3097 0
-2906 -3098 0
-2907 -3099 0
-2908 -3100 0
-2905 -3209 0
-2906 -3210 0
-2907 -3211 0
-2908 -3212 0
-2905 -3401 0
-2906 -3402 0
-2907 -3403 0
-2908 -3404 0
-2905 -3737 0
-2906 -3738 0
-2907 -3739 0
-2908 -3740 0
-2905 -3821 0
-2906 -3822 0
-2907 -3823 0
-2908 -3824 0
-2909 -3009 0
-2910 -3010 0
-2911 -3011 0
-2912 -3012 0
-2909 -3069 0
-2910 -3070 0
-2911 -3071 0
-2912 -3072 0
-2909 -3097 0
-2910 -3098 0
-2911 -3099 0
-2912 -3100 0
-2909 -3161 0
-2910 -3162 0
-2911 -3163 0
-2912 -3164 0
-2909 -3701 0
-2910 -3702 0
-2911 -3703 0
-2912 -3704 0
-2909 -3745 0
-2910 -3746 0
-2911 -3747 0
-2912 -3748 0
-2909 -3829 0
-2910 -3830 0
-2911 -3831 0
-2912 -3832 0
-2913 -3129 0
-2914 -3130 0
-2915 -3131 0
-2916 -3132 0
-2913 -3137 0
-2914 -3138 0
-2915 -3139 0
-2916 -3140 0
-2913 -3201 0
-2914 -3202 0
-2915 -3203 0
-2916 -3204 0
-2913 -3229 0
-2914 -3230 0
-2915 -3231 0
-2916 -3232 0
-2913 -3365 0
-2914 -3366 0
-2915 -3367 0
-2916 -3368 0
-2913 -3749 0
-2914 -3750 0
-2915 -3751 0
-2916 -3752 0
-2913 -3833 0
-2914 -3834 0
-2915 -3835 0
-2916 -3836 0
-2917 -2933 0
-2918 -2934 0
-2919 -2935 0
-2920 -2936 0
-2917 -3125 0
-2918 -3126 0
-2919 -3127 0
-2920 -3128 0
-2917 -3133 0
-2918 -3134 0
-2919 -3135 0
-2920 -3136 0
-2917 -3241 0
-2918 -3242 0
-2919 -3243 0
-2920 -3244 0
-2917 -3717 0
-2918 -3718 0
-2919 -3719 0
-2920 -3720 0
-2917 -3753 0
-2918 -3754 0
-2919 -3755 0
-2920 -3756 0
-2917 -3809 0
-2918 -3810 0
-2919 -3811 0
-2920 -3812 0
-2921 -3193 0
-2922 -3194 0
-2923 -3195 0
-2924 -3196 0
-2921 -3293 0
-2922 -3294 0
-2923 -3295 0
-2924 -3296 0
-2921 -3729 0
-2922 -3730 0
-2923 -3731 0
-2924 -3732 0
-2921 -3741 0
-2922 -3742 0
-2923 -3743 0
-2924 -3744 0
-2921 -3797 0
-2922 -3798 0
-2923 -3799 0
-2924 -3800 0
-2925 -2949 0
-2926 -2950 0
-2927 -2951 0
-2928 -2952 0
-2925 -2989 0
-2926 -2990 0
-2927 -2991 0
-2928 -2992 0
-2925 -3237 0
-2926 -3238 0
-2927 -3239 0
-2928 -3240 0
-2925 -3265 0
-2926 -3266 0
-2927 -3267 0
-2928 -3268 0
-2925 -3453 0
-2926 -3454 0
-2927 -3455 0
-2928 -3456 0
-2925 -3537 0
-2926 -3538 0
-2927 -3539 0
-2928 -3540 0
-2925 -3813 0
-2926 -3814 0
-2927 -3815 0
-2928 -3816 0
-2929 -3165 0
-2930 -3166 0
-2931 -3167 0
-2932 -3168 0
-2929 -3309 0
-2930 -3310 0
-2931 -3311 0
-2932 -3312 0
-2929 -3449 0
-2930 -3450 0
-2931 -3451 0
-2932 -3452 0
-2929 -3533 0
-2930 -3534 0
-2931 -3535 0
-2932 -3536 0
-2929 -3801 0
-2930 -3802 0
-2931 -3803 0
-2932 -3804 0
-2933 -2993 0
-2934 -2994 0
-2935 -2995 0
-2936 -2996 0
-2933 -3133 0
-2934 -3134 0
-2935 -3135 0
-2936 -3136 0
-2933 -3241 0
-2934 -3242 0
-2935 -3243 0
-2936 -3244 0
-2933 -3469 0
-2934 -3470 0
-2935 -3471 0
-2936 -3472 0
-2933 -3789 0
-2934 -3790 0
-2935 -3791 0
-2936 -3792 0
-2933 -3817 0
-2934 -3818 0
-2935 -3819 0
-2936 -3820 0
-2937 -2969 0
-2938 -2970 0
-2939 -2971 0
-2940 -2972 0
-2937 -3029 0
-2938 -3030 0
-2939 -3031 0
-2940 -3032 0
-2937 -3141 0
-2938 -3142 0
-2939 -3143 0
-2940 -3144 0
-2937 -3493 0
-2938 -3494 0
-2939 -3495 0
-2940 -3496 0
-2937 -3533 0
-2938 -3534 0
-2939 -3535 0
-2940 -3536 0
-2937 -3829 0
-2938 -3830 0
-2939 -3831 0
-2940 -3832 0
-2941 -2985 0
-2942 -2986 0
-2943 -2987 0
-2944 -2988 0
-2941 -3057 0
-2942 -3058 0
-2943 -3059 0
-2944 -3060 0
-2941 -3169 0
-2942 -3170 0
-2943 -3171 0
-2944 -3172 0
-2941 -3181 0
-2942 -3182 0
-2943 -3183 0
-2944 -3184 0
-2941 -3329 0
-2942 -3330 0
-2943 -3331 0
-2944 -3332 0
-2941 -3757 0
-2942 -3758 0
-2943 -3759 0
-2944 -3760 0
-2941 -3837 0
-2942 -3838 0
-2943 -3839 0
-2944 -3840 0
-2945 -2981 0
-2946 -2982 0
-2947 -2983 0
-2948 -2984 0
-2945 -3053 0
-2946 -3054 0
-2947 -3055 0
-2948 -3056 0
-2945 -3173 0
-2946 -3174 0
-2947 -3175 0
-2948 -3176 0
-2945 -3177 0
-2946 -3178 0
-2947 -3179 0
-2948 -3180 0
-2945 -3325 0
-2946 -3326 0
-2947 -3327 0
-2948 -3328 0
-2945 -3333 0
-2946 -3334 0
-2947 -3335 0
-2948 -3336 0
-2945 -3841 0
-2946 -3842 0
-2947 -3843 0
-2948 -3844 0
-2949 -2989 0
-2950 -2990 0
-2951 -2991 0
-2952 -2992 0
-2949 -3049 0
-2950 -3050 0
-2951 -3051 0
-2952 -3052 0
-2949 -3265 0
-2950 -3266 0
-2951 -3267 0
-2952 -3268 0
-2949 -3549 0
-2950 -3550 0
-2951 -3551 0
-2952 -3552 0
-2949 -3709 0
-2950 -3710 0
-2951 -3711 0
-2952 -3712 0
-2949 -3805 0
-2950 -3806 0
-2951 -3807 0
-2952 -3808 0
-2953 -3045 0
-2954 -3046 0
-2955 -3047 0
-2956 -3048 0
-2953 -3113 0
-2954 -3114 0
-2955 -3115 0
-2956 -3116 0
-2953 -3173 0
-2954 -3174 0
-2955 -3175 0
-2956 -3176 0
-2953 -3225 0
-2954 -3226 0
-2955 -3227 0
-2956 -3228 0
-2953 -3629 0
-2954 -3630 0
-2955 -3631 0
-2956 -3632 0
-2953 -3765 0
-2954 -3766 0
-2955 -3767 0
-2956 -3768 0
-2953 -3841 0
-2954 -3842 0
-2955 -3843 0
-2956 -3844 0
-2957 -3017 0
-2958 -3018 0
-2959 -3019 0
-2960 -3020 0
-2957 -3037 0
-2958 -3038 0
-2959 -3039 0
-2960 -3040 0
-2957 -3105 0
-2958 -3106 0
-2959 -3107 0
-2960 -3108 0
-2957 -3621 0
-2958 -3622 0
-2959 -3623 0
-2960 -3624 0
-2957 -3761 0
-2958 -3762 0
-2959 -3763 0
-2960 -3764 0
-2957 -3805 0
-2958 -3806 0
-2959 -3807 0
-2960 -3808 0
-2961 -3081 0
-2962 -3082 0
-2963 -3083 0
-2964 -3084 0
-2961 -3197 0
-2962 -3198 0
-2963 -3199 0
-2964 -3200 0
-2961 -3213 0
-2962 -3214 0
-2963 -3215 0
-2964 -3216 0
-2961 -3285 0
-2962 -3286 0
-2963 -3287 0
-2964 -3288 0
-2961 -3653 0
-2962 -3654 0
-2963 -3655 0
-2964 -3656 0
-2961 -3781 0
-2962 -3782 0
-2963 -3783 0
-2964 -3784 0
-2961 -3825 0
-2962 -3826 0
-2963 -3827 0
-2964 -3828 0
-2965 -2993 0
-2966 -2994 0
-2967 -2995 0
-2968 -2996 0
-2965 -3093 0
-2966 -3094 0
-2967 -3095 0
-2968 -3096 0
-2965 -3133 0
-2966 -3134 0
-2967 -3135 0
-2968 -3136 0
-2965 -3217 0
-2966 -3218 0
-2967 -3219 0
-2968 -3220 0
-2965 -3661 0
-2966 -3662 0
-2967 -3663 0
-2968 -3664 0
-2965 -3769 0
-2966 -3770 0
-2967 -3771 0
-2968 -3772 0
-2965 -3809 0
-2966 -3810 0
-2967 -3811 0
-2968 -3812 0
-2969 -3029 0
-2970 -3030 0
-2971 -3031 0
-2972 -3032 0
-2969 -3141 0
-2970 -3142 0
-2971 -3143 0
-2972 -3144 0
-2969 -3409 0
-2970 -3410 0
-2971 -3411 0
-2972 -3412 0
-2969 -3413 0
-2970 -3414 0
-2971 -3415 0
-2972 -3416 0
-2969 -3821 0
-2970 -3822 0
-2971 -3823 0
-2972 -3824 0
-2973 -3033 0
-2974 -3034 0
-2975 -3035 0
-2976 -3036 0
-2973 -3161 0
-2974 -3162 0
-2975 -3163 0
-2976 -3164 0
-2973 -3209 0
-2974 -3210 0
-2975 -3211 0
-2976 -3212 0
-2973 -3405 0
-2974 -3406 0
-2975 -3407 0
-2976 -3408 0
-2973 -3709 0
-2974 -3710 0
-2975 -3711 0
-2976 -3712 0
-2973 -3829 0
-2974 -3830 0
-2975 -3831 0
-2976 -3832 0
-2977 -3021 0
-2978 -3022 0
-2979 -3023 0
-2980 -3024 0
-2977 -3293 0
-2978 -3294 0
-2979 -3295 0
-2980 -3296 0
-2977 -3313 0
-2978 -3314 0
-2979 -3315 0
-2980 -3316 0
-2977 -3541 0
-2978 -3542 0
-2979 -3543 0
-2980 -3544 0
-2977 -3757 0
-2978 -3758 0
-2979 -3759 0
-2980 -3760 0
-2977 -3801 0
-2978 -3802 0
-2979 -3803 0
-2980 -3804 0
-2981 -3053 0
-2982 -3054 0
-2983 -3055 0
-2984 -3056 0
-2981 -3177 0
-2982 -3178 0
-2983 -3179 0
-2984 -3180 0
-2981 -3269 0
-2982 -3270 0
-2983 -3271 0
-2984 -3272 0
-2981 -3377 0
-2982 -3378 0
-2983 -3379 0
-2984 -3380 0
-2981 -3609 0
-2982 -3610 0
-2983 -3611 0
-2984 -3612 0
-2981 -3837 0
-2982 -3838 0
-2983 -3839 0
-2984 -3840 0
-2985 -3057 0
-2986 -3058 0
-2987 -3059 0
-2988 -3060 0
-2985 -3181 0
-2986 -3182 0
-2987 -3183 0
-2988 -3184 0
-2985 -3273 0
-2986 -3274 0
-2987 -3275 0
-2988 -3276 0
-2985 -3605 0
-2986 -3606 0
-2987 -3607 0
-2988 -3608 0
-2985 -3769 0
-2986 -3770 0
-2987 -3771 0
-2988 -3772 0
-2985 -3841 0
-2986 -3842 0
-2987 -3843 0
-2988 -3844 0
-2989 -3049 0
-2990 -3050 0
-2991 -3051 0
-2992 -3052 0
-2989 -3089 0
-2990 -3090 0
-2991 -3091 0
-2992 -3092 0
-2989 -3321 0
-2990 -3322 0
-2991 -3323 0
-2992 -3324 0
-2989 -3441 0
-2990 -3442 0
-2991 -3443 0
-2992 -3444 0
-2989 -3813 0
-2990 -3814 0
-2991 -3815 0
-2992 -3816 0
-2993 -3093 0
-2994 -3094 0
-2995 -3095 0
-2996 -3096 0
-2993 -3133 0
-2994 -3134 0
-2995 -3135 0
-2996 -3136 0
-2993 -3349 0
-2994 -3350 0
-2995 -3351 0
-2996 -3352 0
-2993 -3545 0
-2994 -3546 0
-2995 -3547 0
-2996 -3548 0
-2993 -3817 0
-2994 -3818 0
-2995 -3819 0
-2996 -3820 0
-2997 -3101 0
-2998 -3102 0
-2999 -3103 0
-3000 -3104 0
-2997 -3141 0
-2998 -3142 0
-2999 -3143 0
-3000 -3144 0
-2997 -3233 0
-2998 -3234 0
-2999 -3235 0
-3000 -3236 0
-2997 -3545 0
-2998 -3546 0
-2999 -3547 0
-3000 -3548 0
-2997 -3613 0
-2998 -3614 0
-2999 -3615 0
-3000 -3616 0
-2997 -3821 0
-2998 -3822 0
-2999 -3823 0
-3000 -3824 0
-3001 -3065 0
-3002 -3066 0
-3003 -3067 0
-3004 -3068 0
-3001 -3121 0
-3002 -3122 0
-3003 -3123 0
-3004 -3124 0
-3001 -3145 0
-3002 -3146 0
-3003 -3147 0
-3004 -3148 0
-3001 -3205 0
-3002 -3206 0
-3003 -3207 0
-3004 -3208 0
-3001 -3345 0
-3002 -3346 0
-3003 -3347 0
-3004 -3348 0
-3001 -3349 0
-3002 -3350 0
-3003 -3351 0
-3004 -3352 0
-3001 -3825 0
-3002 -3826 0
-3003 -3827 0
-3004 -3828 0
-3005 -3025 0
-3006 -3026 0
-3007 -3027 0
-3008 -3028 0
-3005 -3077 0
-3006 -3078 0
-3007 -3079 0
-3008 -3080 0
-3005 -3117 0
-3006 -3118 0
-3007 -3119 0
-3008 -3120 0
-3005 -3149 0
-3006 -3150 0
-3007 -3151 0
-3008 -3152 0
-3005 -3641 0
-3006 -3642 0
-3007 -3643 0
-3008 -3644 0
-3005 -3677 0
-3006 -3678 0
-3007 -3679 0
-3008 -3680 0
-3005 -3817 0
-3006 -3818 0
-3007 -3819 0
-3008 -3820 0
-3009 -3033 0
-3010 -3034 0
-3011 -3035 0
-3012 -3036 0
-3009 -3097 0
-3010 -3098 0
-3011 -3099 0
-3012 -3100 0
-3009 -3161 0
-3010 -3162 0
-3011 -3163 0
-3012 -3164 0
-3009 -3421 0
-3010 -3422 0
-3011 -3423 0
-3012 -3424 0
-3009 -3773 0
-3010 -3774 0
-3011 -3775 0
-3012 -3776 0
-3009 -3821 0
-3010 -3822 0
-3011 -3823 0
-3012 -3824 0
-3013 -3073 0
-3014 -3074 0
-3015 -3075 0
-3016 -3076 0
-3013 -3301 0
-3014 -3302 0
-3015 -3303 0
-3016 -3304 0
-3013 -3653 0
-3014 -3654 0
-3015 -3655 0
-3016 -3656 0
-3013 -3681 0
-3014 -3682 0
-3015 -3683 0
-3016 -3684 0
-3013 -3801 0
-3014 -3802 0
-3015 -3803 0
-3016 -3804 0
-3017 -3105 0
-3018 -3106 0
-3019 -3107 0
-3020 -3108 0
-3017 -3261 0
-3018 -3262 0
-3019 -3263 0
-3020 -3264 0
-3017 -3501 0
-3018 -3502 0
-3019 -3503 0
-3020 -3504 0
-3017 -3557 0
-3018 -3558 0
-3019 -3559 0
-3020 -3560 0
-3017 -3805 0
-3018 -3806 0
-3019 -3807 0
-3020 -3808 0
-3021 -3313 0
-3022 -3314 0
-3023 -3315 0
-3024 -3316 0
-3021 -3497 0
-3022 -3498 0
-3023 -3499 0
-3024 -3500 0
-3021 -3685 0
-3022 -3686 0
-3023 -3687 0
-3024 -3688 0
-3021 -3797 0
-3022 -3798 0
-3023 -3799 0
-3024 -3800 0
-3025 -3077 0
-3026 -3078 0
-3027 -3079 0
-3028 -3080 0
-3025 -3149 0
-3026 -3150 0
-3027 -3151 0
-3028 -3152 0
-3025 -3657 0
-3026 -3658 0
-3027 -3659 0
-3028 -3660 0
-3025 -3765 0
-3026 -3766 0
-3027 -3767 0
-3028 -3768 0
-3025 -3809 0
-3026 -3810 0
-3027 -3811 0
-3028 -3812 0
-3029 -3085 0
-3030 -3086 0
-3031 -3087 0
-3032 -3088 0
-3029 -3345 0
-3030 -3346 0
-3031 -3347 0
-3032 -3348 0
-3029 -3353 0
-3030 -3354 0
-3031 -3355 0
-3032 -3356 0
-3029 -3829 0
-3030 -3830 0
-3031 -3831 0
-3032 -3832 0
-3033 -3161 0
-3034 -3162 0
-3035 -3163 0
-3036 -3164 0
-3033 -3357 0
-3034 -3358 0
-3035 -3359 0
-3036 -3360 0
-3033 -3677 0
-3034 -3678 0
-3035 -3679 0
-3036 -3680 0
-3033 -3821 0
-3034 -3822 0
-3035 -3823 0
-3036 -3824 0
-3037 -3105 0
-3038 -3106 0
-3039 -3107 0
-3040 -3108 0
-3037 -3189 0
-3038 -3190 0
-3039 -3191 0
-3040 -3192 0
-3037 -3525 0
-3038 -3526 0
-3039 -3527 0
-3040 -3528 0
-3037 -3713 0
-3038 -3714 0
-3039 -3715 0
-3040 -3716 0
-3037 -3813 0
-3038 -3814 0
-3039 -3815 0
-3040 -3816 0
-3041 -3061 0
-3042 -3062 0
-3043 -3063 0
-3044 -3064 0
-3041 -3109 0
-3042 -3110 0
-3043 -3111 0
-3044 -3112 0
-3041 -3221 0
-3042 -3222 0
-3043 -3223 0
-3044 -3224 0
-3041 -3273 0
-3042 -3274 0
-3043 -3275 0
-3044 -3276 0
-3041 -3601 0
-3042 -3602 0
-3043 -3603 0
-3044 -3604 0
-3041 -3785 0
-3042 -3786 0
-3043 -3787 0
-3044 -3788 0
-3041 -3841 0
-3042 -3842 0
-3043 -3843 0
-3044 -3844 0
-3045 -3113 0
-3046 -3114 0
-3047 -3115 0
-3048 -3116 0
-3045 -3225 0
-3046 -3226 0
-3047 -3227 0
-3048 -3228 0
-3045 -3269 0
-3046 -3270 0
-3047 -3271 0
-3048 -3272 0
-3045 -3517 0
-3046 -3518 0
-3047 -3519 0
-3048 -3520 0
-3045 -3597 0
-3046 -3598 0
-3047 -3599 0
-3048 -3600 0
-3045 -3837 0
-3046 -3838 0
-3047 -3839 0
-3048 -3840 0
-3049 -3089 0
-3050 -3090 0
-3051 -3091 0
-3052 -3092 0
-3049 -3297 0
-3050 -3298 0
-3051 -3299 0
-3052 -3300 0
-3049 -3341 0
-3050 -3342 0
-3051 -3343 0
-3052 -3344 0
-3049 -3573 0
-3050 -3574 0
-3051 -3575 0
-3052 -3576 0
-3049 -3805 0
-3050 -3806 0
-3051 -3807 0
-3052 -3808 0
-3053 -3113 0
-3054 -3114 0
-3055 -3115 0
-3056 -3116 0
-3053 -3173 0
-3054 -3174 0
-3055 -3175 0
-3056 -3176 0
-3053 -3417 0
-3054 -3418 0
-3055 -3419 0
-3056 -3420 0
-3053 -3437 0
-3054 -3438 0
-3055 -3439 0
-3056 -3440 0
-3053 -3837 0
-3054 -3838 0
-3055 -3839 0
-3056 -3840 0
-3057 -3109 0
-3058 -3110 0
-3059 -3111 0
-3060 -3112 0
-3057 -3169 0
-3058 -3170 0
-3059 -3171 0
-3060 -3172 0
-3057 -3317 0
-3058 -3318 0
-3059 -3319 0
-3060 -3320 0
-3057 -3361 0
-3058 -3362 0
-3059 -3363 0
-3060 -3364 0
-3057 -3841 0
-3058 -3842 0
-3059 -3843 0
-3060 -3844 0
-3061 -3109 0
-3062 -3110 0
-3063 -3111 0
-3064 -3112 0
-3061 -3169 0
-3062 -3170 0
-3063 -3171 0
-3064 -3172 0
-3061 -3221 0
-3062 -3222 0
-3063 -3223 0
-3064 -3224 0
-3061 -3473 0
-3062 -3474 0
-3063 -3475 0
-3064 -3476 0
-3061 -3625 0
-3062 -3626 0
-3063 -3627 0
-3064 -3628 0
-3061 -3837 0
-3062 -3838 0
-3063 -3839 0
-3064 -3840 0
-3065 -3145 0
-3066 -3146 0
-3067 -3147 0
-3068 -3148 0
-3065 -3205 0
-3066 -3206 0
-3067 -3207 0
-3068 -3208 0
-3065 -3277 0
-3066 -3278 0
-3067 -3279 0
-3068 -3280 0
-3065 -3473 0
-3066 -3474 0
-3067 -3475 0
-3068 -3476 0
-3065 -3661 0
-3066 -3662 0
-3067 -3663 0
-3068 -3664 0
-3065 -3833 0
-3066 -3834 0
-3067 -3835 0
-3068 -3836 0
-3069 -3097 0
-3070 -3098 0
-3071 -3099 0
-3072 -3100 0
-3069 -3209 0
-3070 -3210 0
-3071 -3211 0
-3072 -3212 0
-3069 -3505 0
-3070 -3506 0
-3071 -3507 0
-3072 -3508 0
-3069 -3617 0
-3070 -3618 0
-3071 -3619 0
-3072 -3620 0
-3069 -3829 0
-3070 -3830 0
-3071 -3831 0
-3072 -3832 0
-3073 -3153 0
-3074 -3154 0
-3075 -3155 0
-3076 -3156 0
-3073 -3301 0
-3074 -3302 0
-3075 -3303 0
-3076 -3304 0
-3073 -3581 0
-3074 -3582 0
-3075 -3583 0
-3076 -3584 0
-3073 -3705 0
-3074 -3706 0
-3075 -3707 0
-3076 -3708 0
-3073 -3797 0
-3074 -3798 0
-3075 -3799 0
-3076 -3800 0
-3077 -3117 0
-3078 -3118 0
-3079 -3119 0
-3080 -3120 0
-3077 -3689 0
-3078 -3690 0
-3079 -3691 0
-3080 -3692 0
-3077 -3793 0
-3078 -3794 0
-3079 -3795 0
-3080 -3796 0
-3077 -3809 0
-3078 -3810 0
-3079 -3811 0
-3080 -3812 0
-3081 -3137 0
-3082 -3138 0
-3083 -3139 0
-3084 -3140 0
-3081 -3213 0
-3082 -3214 0
-3083 -3215 0
-3084 -3216 0
-3081 -3285 0
-3082 -3286 0
-3083 -3287 0
-3084 -3288 0
-3081 -3377 0
-3082 -3378 0
-3083 -3379 0
-3084 -3380 0
-3081 -3657 0
-3082 -3658 0
-3083 -3659 0
-3084 -3660 0
-3081 -3833 0
-3082 -3834 0
-3083 -3835 0
-3084 -3836 0
-3085 -3101 0
-3086 -3102 0
-3087 -3103 0
-3088 -3104 0
-3085 -3233 0
-3086 -3234 0
-3087 -3235 0
-3088 -3236 0
-3085 -3425 0
-3086 -3426 0
-3087 -3427 0
-3088 -3428 0
-3085 -3665 0
-3086 -3666 0
-3087 -3667 0
-3088 -3668 0
-3085 -3829 0
-3086 -3830 0
-3087 -3831 0
-3088 -3832 0
-3089 -3297 0
-3090 -3298 0
-3091 -3299 0
-3092 -3300 0
-3089 -3649 0
-3090 -3650 0
-3091 -3651 0
-3092 -3652 0
-3089 -3721 0
-3090 -3722 0
-3091 -3723 0
-3092 -3724 0
-3089 -3813 0
-3090 -3814 0
-3091 -3815 0
-3092 -3816 0
-3093 -3217 0
-3094 -3218 0
-3095 -3219 0
-3096 -3220 0
-3093 -3529 0
-3094 -3530 0
-3095 -3531 0
-3096 -3532 0
-3093 -3649 0
-3094 -3650 0
-3095 -3651 0
-3096 -3652 0
-3093 -3817 0
-3094 -3818 0
-3095 -3819 0
-3096 -3820 0
-3097 -3693 0
-3098 -3694 0
-3099 -3695 0
-3100 -3696 0
-3097 -3777 0
-3098 -3778 0
-3099 -3779 0
-3100 -3780 0
-3097 -3821 0
-3098 -3822 0
-3099 -3823 0
-3100 -3824 0
-3101 -3233 0
-3102 -3234 0
-3103 -3235 0
-3104 -3236 0
-3101 -3553 0
-3102 -3554 0
-3103 -3555 0
-3104 -3556 0
-3101 -3697 0
-3102 -3698 0
-3103 -3699 0
-3104 -3700 0
-3101 -3829 0
-3102 -3830 0
-3103 -3831 0
-3104 -3832 0
-3105 -3261 0
-3106 -3262 0
-3107 -3263 0
-3108 -3264 0
-3105 -3373 0
-3106 -3374 0
-3107 -3375 0
-3108 -3376 0
-3105 -3685 0
-3106 -3686 0
-3107 -3687 0
-3108 -3688 0
-3105 -3813 0
-3106 -3814 0
-3107 -3815 0
-3108 -3816 0
-3109 -3169 0
-3110 -3170 0
-3111 -3171 0
-3112 -3172 0
-3109 -3717 0
-3110 -3718 0
-3111 -3719 0
-3112 -3720 0
-3109 -3721 0
-3110 -3722 0
-3111 -3723 0
-3112 -3724 0
-3109 -3841 0
-3110 -3842 0
-3111 -3843 0
-3112 -3844 0
-3113 -3173 0
-3114 -3174 0
-3115 -3175 0
-3116 -3176 0
-3113 -3365 0
-3114 -3366 0
-3115 -3367 0
-3116 -3368 0
-3113 -3681 0
-3114 -3682 0
-3115 -3683 0
-3116 -3684 0
-3113 -3837 0
-3114 -3838 0
-3115 -3839 0
-3116 -3840 0
-3117 -3369 0
-3118 -3370 0
-3119 -3371 0
-3120 -3372 0
-3117 -3673 0
-3118 -3674 0
-3119 -3675 0
-3120 -3676 0
-3117 -3817 0
-3118 -3818 0
-3119 -3819 0
-3120 -3820 0
-3121 -3205 0
-3122 -3206 0
-3123 -3207 0
-3124 -3208 0
-3121 -3289 0
-3122 -3290 0
-3123 -3291 0
-3124 -3292 0
-3121 -3373 0
-3122 -3374 0
-3123 -3375 0
-3124 -3376 0
-3121 -3669 0
-3122 -3670 0
-3123 -3671 0
-3124 -3672 0
-3121 -3825 0
-3122 -3826 0
-3123 -3827 0
-3124 -3828 0
-3125 -3217 0
-3126 -3218 0
-3127 -3219 0
-3128 -3220 0
-3125 -3241 0
-3126 -3242 0
-3127 -3243 0
-3128 -3244 0
-3125 -3353 0
-3126 -3354 0
-3127 -3355 0
-3128 -3356 0
-3125 -3381 0
-3126 -3382 0
-3127 -3383 0
-3128 -3384 0
-3125 -3809 0
-3126 -3810 0
-3127 -3811 0
-3128 -3812 0
-3129 -3197 0
-3130 -3198 0
-3131 -3199 0
-3132 -3200 0
-3129 -3201 0
-3130 -3202 0
-3131 -3203 0
-3132 -3204 0
-3129 -3213 0
-3130 -3214 0
-3131 -3215 0
-3132 -3216 0
-3129 -3357 0
-3130 -3358 0
-3131 -3359 0
-3132 -3360 0
-3129 -3385 0
-3130 -3386 0
-3131 -3387 0
-3132 -3388 0
-3129 -3833 0
-3130 -3834 0
-3131 -3835 0
-3132 -3836 0
-3133 -3477 0
-3134 -3478 0
-3135 -3479 0
-3136 -3480 0
-3133 -3553 0
-3134 -3554 0
-3135 -3555 0
-3136 -3556 0
-3133 -3809 0
-3134 -3810 0
-3135 -3811 0
-3136 -3812 0
-3137 -3229 0
-3138 -3230 0
-3139 -3231 0
-3140 -3232 0
-3137 -3285 0
-3138 -3286 0
-3139 -3287 0
-3140 -3288 0
-3137 -3549 0
-3138 -3550 0
-3139 -3551 0
-3140 -3552 0
-3137 -3777 0
-3138 -3778 0
-3139 -3779 0
-3140 -3780 0
-3137 -3833 0
-3138 -3834 0
-3139 -3835 0
-3140 -3836 0
-3141 -3437 0
-3142 -3438 0
-3143 -3439 0
-3144 -3440 0
-3141 -3525 0
-3142 -3526 0
-3143 -3527 0
-3144 -3528 0
-3141 -3821 0
-3142 -3822 0
-3143 -3823 0
-3144 -3824 0
-3145 -3245 0
-3146 -3246 0
-3147 -3247 0
-3148 -3248 0
-3145 -3277 0
-3146 -3278 0
-3147 -3279 0
-3148 -3280 0
-3145 -3541 0
-3146 -3542 0
-3147 -3543 0
-3148 -3544 0
-3145 -3785 0
-3146 -3786 0
-3147 -3787 0
-3148 -3788 0
-3145 -3825 0
-3146 -3826 0
-3147 -3827 0
-3148 -3828 0
-3149 -3249 0
-3150 -3250 0
-3151 -3251 0
-3152 -3252 0
-3149 -3433 0
-3150 -3434 0
-3151 -3435 0
-3152 -3436 0
-3149 -3517 0
-3150 -3518 0
-3151 -3519 0
-3152 -3520 0
-3149 -3817 0
-3150 -3818 0
-3151 -3819 0
-3152 -3820 0
-3153 -3165 0
-3154 -3166 0
-3155 -3167 0
-3156 -3168 0
-3153 -3397 0
-3154 -3398 0
-3155 -3399 0
-3156 -3400 0
-3153 -3637 0
-3154 -3638 0
-3155 -3639 0
-3156 -3640 0
-3153 -3797 0
-3154 -3798 0
-3155 -3799 0
-3156 -3800 0
-3157 -3237 0
-3158 -3238 0
-3159 -3239 0
-3160 -3240 0
-3157 -3265 0
-3158 -3266 0
-3159 -3267 0
-3160 -3268 0
-3157 -3297 0
-3158 -3298 0
-3159 -3299 0
-3160 -3300 0
-3157 -3393 0
-3158 -3394 0
-3159 -3395 0
-3160 -3396 0
-3157 -3633 0
-3158 -3634 0
-3159 -3635 0
-3160 -3636 0
-3157 -3805 0
-3158 -3806 0
-3159 -3807 0
-3160 -3808 0
-3161 -3485 0
-3162 -3486 0
-3163 -3487 0
-3164 -3488 0
-3161 -3793 0
-3162 -3794 0
-3163 -3795 0
-3164 -3796 0
-3161 -3829 0
-3162 -3830 0
-3163 -3831 0
-3164 -3832 0
-3165 -3309 0
-3166 -3310 0
-3167 -3311 0
-3168 -3312 0
-3165 -3561 0
-3166 -3562 0
-3167 -3563 0
-3168 -3564 0
-3165 -3749 0
-3166 -3750 0
-3167 -3751 0
-3168 -3752 0
-3165 -3797 0
-3166 -3798 0
-3167 -3799 0
-3168 -3800 0
-3169 -3569 0
-3170 -3570 0
-3171 -3571 0
-3172 -3572 0
-3169 -3577 0
-3170 -3578 0
-3171 -3579 0
-3172 -3580 0
-3169 -3837 0
-3170 -3838 0
-3171 -3839 0
-3172 -3840 0
-3173 -3493 0
-3174 -3494 0
-3175 -3495 0
-3176 -3496 0
-3173 -3581 0
-3174 -3582 0
-3175 -3583 0
-3176 -3584 0
-3173 -3841 0
-3174 -3842 0
-3175 -3843 0
-3176 -3844 0
-3177 -3225 0
-3178 -3226 0
-3179 -3227 0
-3180 -3228 0
-3177 -3269 0
-3178 -3270 0
-3179 -3271 0
-3180 -3272 0
-3177 -3561 0
-3178 -3562 0
-3179 -3563 0
-3180 -3564 0
-3177 -3781 0
-3178 -3782 0
-3179 -3783 0
-3180 -3784 0
-3177 -3841 0
-3178 -3842 0
-3179 -3843 0
-3180 -3844 0
-3181 -3221 0
-3182 -3222 0
-3183 -3223 0
-3184 -3224 0
-3181 -3273 0
-3182 -3274 0
-3183 -3275 0
-3184 -3276 0
-3181 -3445 0
-3182 -3446 0
-3183 -3447 0
-3184 -3448 0
-3181 -3529 0
-3182 -3530 0
-3183 -3531 0
-3184 -3532 0
-3181 -3837 0
-3182 -3838 0
-3183 -3839 0
-3184 -3840 0
-3185 -3189 0
-3186 -3190 0
-3187 -3191 0
-3188 -3192 0
-3185 -3253 0
-3186 -3254 0
-3187 -3255 0
-3188 -3256 0
-3185 -3261 0
-3186 -3262 0
-3187 -3263 0
-3188 -3264 0
-3185 -3481 0
-3186 -3482 0
-3187 -3483 0
-3188 -3484 0
-3185 -3565 0
-3186 -3566 0
-3187 -3567 0
-3188 -3568 0
-3185 -3813 0
-3186 -3814 0
-3187 -3815 0
-3188 -3816 0
-3189 -3253 0
-3190 -3254 0
-3191 -3255 0
-3192 -3256 0
-3189 -3673 0
-3190 -3674 0
-3191 -3675 0
-3192 -3676 0
-3189 -3729 0
-3190 -3730 0
-3191 -3731 0
-3192 -3732 0
-3189 -3813 0
-3190 -3814 0
-3191 -3815 0
-3192 -3816 0
-3193 -3293 0
-3194 -3294 0
-3195 -3295 0
-3196 -3296 0
-3193 -3305 0
-3194 -3306 0
-3195 -3307 0
-3196 -3308 0
-3193 -3669 0
-3194 -3670 0
-3195 -3671 0
-3196 -3672 0
-3193 -3725 0
-3194 -3726 0
-3195 -3727 0
-3196 -3728 0
-3193 -3801 0
-3194 -3802 0
-3195 -3803 0
-3196 -3804 0
-3197 -3201 0
-3198 -3202 0
-3199 -3203 0
-3200 -3204 0
-3197 -3213 0
-3198 -3214 0
-3199 -3215 0
-3200 -3216 0
-3197 -3405 0
-3198 -3406 0
-3199 -3407 0
-3200 -3408 0
-3197 -3513 0
-3198 -3514 0
-3199 -3515 0
-3200 -3516 0
-3197 -3825 0
-3198 -3826 0
-3199 -3827 0
-3200 -3828 0
-3201 -3229 0
-3202 -3230 0
-3203 -3231 0
-3204 -3232 0
-3201 -3593 0
-3202 -3594 0
-3203 -3595 0
-3204 -3596 0
-3201 -3629 0
-3202 -3630 0
-3203 -3631 0
-3204 -3632 0
-3201 -3825 0
-3202 -3826 0
-3203 -3827 0
-3204 -3828 0
-3205 -3289 0
-3206 -3290 0
-3207 -3291 0
-3208 -3292 0
-3205 -3585 0
-3206 -3586 0
-3207 -3587 0
-3208 -3588 0
-3205 -3621 0
-3206 -3622 0
-3207 -3623 0
-3208 -3624 0
-3205 -3833 0
-3206 -3834 0
-3207 -3835 0
-3208 -3836 0
-3209 -3317 0
-3210 -3318 0
-3211 -3319 0
-3212 -3320 0
-3209 -3521 0
-3210 -3522 0
-3211 -3523 0
-3212 -3524 0
-3209 -3829 0
-3210 -3830 0
-3211 -3831 0
-3212 -3832 0
-3213 -3337 0
-3214 -3338 0
-3215 -3339 0
-3216 -3340 0
-3213 -3633 0
-3214 -3634 0
-3215 -3635 0
-3216 -3636 0
-3213 -3833 0
-3214 -3834 0
-3215 -3835 0
-3216 -3836 0
-3217 -3341 0
-3218 -3342 0
-3219 -3343 0
-3220 -3344 0
-3217 -3637 0
-3218 -3638 0
-3219 -3639 0
-3220 -3640 0
-3217 -3809 0
-3218 -3810 0
-3219 -3811 0
-3220 -3812 0
-3221 -3273 0
-3222 -3274 0
-3223 -3275 0
-3224 -3276 0
-3221 -3389 0
-3222 -3390 0
-3223 -3391 0
-3224 -3392 0
-3221 -3773 0
-3222 -3774 0
-3223 -3775 0
-3224 -3776 0
-3221 -3837 0
-3222 -3838 0
-3223 -3839 0
-3224 -3840 0
-3225 -3269 0
-3226 -3270 0
-3227 -3271 0
-3228 -3272 0
-3225 -3665 0
-3226 -3666 0
-3227 -3667 0
-3228 -3668 0
-3225 -3713 0
-3226 -3714 0
-3227 -3715 0
-3228 -3716 0
-3225 -3841 0
-3226 -3842 0
-3227 -3843 0
-3228 -3844 0
-3229 -3285 0
-3230 -3286 0
-3231 -3287 0
-3232 -3288 0
-3229 -3321 0
-3230 -3322 0
-3231 -3323 0
-3232 -3324 0
-3229 -3429 0
-3230 -3430 0
-3231 -3431 0
-3232 -3432 0
-3229 -3825 0
-3230 -3826 0
-3231 -3827 0
-3232 -3828 0
-3233 -3645 0
-3234 -3646 0
-3235 -3647 0
-3236 -3648 0
-3233 -3705 0
-3234 -3706 0
-3235 -3707 0
-3236 -3708 0
-3233 -3821 0
-3234 -3822 0
-3235 -3823 0
-3236 -3824 0
-3237 -3265 0
-3238 -3266 0
-3239 -3267 0
-3240 -3268 0
-3237 -3397 0
-3238 -3398 0
-3239 -3399 0
-3240 -3400 0
-3237 -3789 0
-3238 -3790 0
-3239 -3791 0
-3240 -3792 0
-3237 -3813 0
-3238 -3814 0
-3239 -3815 0
-3240 -3816 0
-3241 -3589 0
-3242 -3590 0
-3243 -3591 0
-3244 -3592 0
-3241 -3625 0
-3242 -3626 0
-3243 -3627 0
-3244 -3628 0
-3241 -3817 0
-3242 -3818 0
-3243 -3819 0
-3244 -3820 0
-3245 -3277 0
-3246 -3278 0
-3247 -3279 0
-3248 -3280 0
-3245 -3281 0
-3246 -3282 0
-3247 -3283 0
-3248 -3284 0
-3245 -3565 0
-3246 -3566 0
-3247 -3567 0
-3248 -3568 0
-3245 -3733 0
-3246 -3734 0
-3247 -3735 0
-3248 -3736 0
-3245 -3825 0
-3246 -3826 0
-3247 -3827 0
-3248 -3828 0
-3249 -3257 0
-3250 -3258 0
-3251 -3259 0
-3252 -3260 0
-3249 -3401 0
-3250 -3402 0
-3251 -3403 0
-3252 -3404 0
-3249 -3489 0
-3250 -3490 0
-3251 -3491 0
-3252 -3492 0
-3249 -3817 0
-3250 -3818 0
-3251 -3819 0
-3252 -3820 0
-3253 -3457 0
-3254 -3458 0
-3255 -3459 0
-3256 -3460 0
-3253 -3725 0
-3254 -3726 0
-3255 -3727 0
-3256 -3728 0
-3253 -3805 0
-3254 -3806 0
-3255 -3807 0
-3256 -3808 0
-3257 -3385 0
-3258 -3386 0
-3259 -3387 0
-3260 -3388 0
-3257 -3617 0
-3258 -3618 0
-3259 -3619 0
-3260 -3620 0
-3257 -3809 0
-3258 -3810 0
-3259 -3811 0
-3260 -3812 0
-3261 -3333 0
-3262 -3334 0
-3263 -3335 0
-3264 -3336 0
-3261 -3433 0
-3262 -3434 0
-3263 -3435 0
-3264 -3436 0
-3261 -3813 0
-3262 -3814 0
-3263 -3815 0
-3264 -3816 0
-3265 -3445 0
-3266 -3446 0
-3267 -3447 0
-3268 -3448 0
-3265 -3753 0
-3266 -3754 0
-3267 -3755 0
-3268 -3756 0
-3265 -3805 0
-3266 -3806 0
-3267 -3807 0
-3268 -3808 0
-3269 -3449 0
-3270 -3450 0
-3271 -3451 0
-3272 -3452 0
-3269 -3645 0
-3270 -3646 0
-3271 -3647 0
-3272 -3648 0
-3269 -3837 0
-3270 -3838 0
-3271 -3839 0
-3272 -3840 0
-3273 -3453 0
-3274 -3454 0
-3275 -3455 0
-3276 -3456 0
-3273 -3745 0
-3274 -3746 0
-3275 -3747 0
-3276 -3748 0
-3273 -3841 0
-3274 -3842 0
-3275 -3843 0
-3276 -3844 0
-3277 -3281 0
-3278 -3282 0
-3279 -3283 0
-3280 -3284 0
-3277 -3457 0
-3278 -3458 0
-3279 -3459 0
-3280 -3460 0
-3277 -3497 0
-3278 -3498 0
-3279 -3499 0
-3280 -3500 0
-3277 -3833 0
-3278 -3834 0
-3279 -3835 0
-3280 -3836 0
-3281 -3289 0
-3282 -3290 0
-3283 -3291 0
-3284 -3292 0
-3281 -3381 0
-3282 -3382 0
-3283 -3383 0
-3284 -3384 0
-3281 -3613 0
-3282 -3614 0
-3283 -3615 0
-3284 -3616 0
-3281 -3833 0
-3282 -3834 0
-3283 -3835 0
-3284 -3836 0
-3285 -3505 0
-3286 -3506 0
-3287 -3507 0
-3288 -3508 0
-3285 -3641 0
-3286 -3642 0
-3287 -3643 0
-3288 -3644 0
-3285 -3825 0
-3286 -3826 0
-3287 -3827 0
-3288 -3828 0
-3289 -3329 0
-3290 -3330 0
-3291 -3331 0
-3292 -3332 0
-3289 -3465 0
-3290 -3466 0
-3291 -3467 0
-3292 -3468 0
-3289 -3833 0
-3290 -3834 0
-3291 -3835 0
-3292 -3836 0
-3293 -3485 0
-3294 -3486 0
-3295 -3487 0
-3296 -3488 0
-3293 -3489 0
-3294 -3490 0
-3295 -3491 0
-3296 -3492 0
-3293 -3801 0
-3294 -3802 0
-3295 -3803 0
-3296 -3804 0
-3297 -3577 0
-3298 -3578 0
-3299 -3579 0
-3300 -3580 0
-3297 -3701 0
-3298 -3702 0
-3299 -3703 0
-3300 -3704 0
-3297 -3805 0
-3298 -3806 0
-3299 -3807 0
-3300 -3808 0
-3301 -3309 0
-3302 -3310 0
-3303 -3311 0
-3304 -3312 0
-3301 -3337 0
-3302 -3338 0
-3303 -3339 0
-3304 -3340 0
-3301 -3441 0
-3302 -3442 0
-3303 -3443 0
-3304 -3444 0
-3301 -3797 0
-3302 -3798 0
-3303 -3799 0
-3304 -3800 0
-3305 -3313 0
-3306 -3314 0
-3307 -3315 0
-3308 -3316 0
-3305 -3389 0
-3306 -3390 0
-3307 -3391 0
-3308 -3392 0
-3305 -3521 0
-3306 -3522 0
-3307 -3523 0
-3308 -3524 0
-3305 -3801 0
-3306 -3802 0
-3307 -3803 0
-3308 -3804 0
-3309 -3413 0
-3310 -3414 0
-3311 -3415 0
-3312 -3416 0
-3309 -3477 0
-3310 -3478 0
-3311 -3479 0
-3312 -3480 0
-3309 -3797 0
-3310 -3798 0
-3311 -3799 0
-3312 -3800 0
-3313 -3369 0
-3314 -3370 0
-3315 -3371 0
-3316 -3372 0
-3313 -3557 0
-3314 -3558 0
-3315 -3559 0
-3316 -3560 0
-3313 -3801 0
-3314 -3802 0
-3315 -3803 0
-3316 -3804 0
-3317 -3373 0
-3318 -3374 0
-3319 -3375 0
-3320 -3376 0
-3317 -3501 0
-3318 -3502 0
-3319 -3503 0
-3320 -3504 0
-3317 -3785 0
-3318 -3786 0
-3319 -3787 0
-3320 -3788 0
-3317 -3793 0
-3318 -3794 0
-3319 -3795 0
-3320 -3796 0
-3317 -3797 0
-3318 -3798 0
-3319 -3799 0
-3320 -3800 0
-3321 -3409 0
-3322 -3410 0
-3323 -3411 0
-3324 -3412 0
-3321 -3493 0
-3322 -3494 0
-3323 -3495 0
-3324 -3496 0
-3321 -3781 0
-3322 -3782 0
-3323 -3783 0
-3324 -3784 0
-3321 -3789 0
-3322 -3790 0
-3323 -3791 0
-3324 -3792 0
-3321 -3801 0
-3322 -3802 0
-3323 -3803 0
-3324 -3804 0
-3325 -3497 0
-3326 -3498 0
-3327 -3499 0
-3328 -3500 0
-3325 -3665 0
-3326 -3666 0
-3327 -3667 0
-3328 -3668 0
-3325 -3733 0
-3326 -3734 0
-3327 -3735 0
-3328 -3736 0
-3325 -3741 0
-3326 -3742 0
-3327 -3743 0
-3328 -3744 0
-3325 -3805 0
-3326 -3806 0
-3327 -3807 0
-3328 -3808 0
-3329 -3401 0
-3330 -3402 0
-3331 -3403 0
-3332 -3404 0
-3329 -3457 0
-3330 -3458 0
-3331 -3459 0
-3332 -3460 0
-3329 -3501 0
-3330 -3502 0
-3331 -3503 0
-3332 -3504 0
-3329 -3773 0
-3330 -3774 0
-3331 -3775 0
-3332 -3776 0
-3329 -3797 0
-3330 -3798 0
-3331 -3799 0
-3332 -3800 0
-3333 -3505 0
-3334 -3506 0
-3335 -3507 0
-3336 -3508 0
-3333 -3629 0
-3334 -3630 0
-3335 -3631 0
-3336 -3632 0
-3333 -3729 0
-3334 -3730 0
-3335 -3731 0
-3336 -3732 0
-3333 -3737 0
-3334 -3738 0
-3335 -3739 0
-3336 -3740 0
-3333 -3809 0
-3334 -3810 0
-3335 -3811 0
-3336 -3812 0
-3337 -3569 0
-3338 -3570 0
-3339 -3571 0
-3340 -3572 0
-3337 -3637 0
-3338 -3638 0
-3339 -3639 0
-3340 -3640 0
-3337 -3717 0
-3338 -3718 0
-3339 -3719 0
-3340 -3720 0
-3337 -3777 0
-3338 -3778 0
-3339 -3779 0
-3340 -3780 0
-3337 -3813 0
-3338 -3814 0
-3339 -3815 0
-3340 -3816 0
-3341 -3365 0
-3342 -3366 0
-3343 -3367 0
-3344 -3368 0
-3341 -3493 0
-3342 -3494 0
-3343 -3495 0
-3344 -3496 0
-3341 -3553 0
-3342 -3554 0
-3343 -3555 0
-3344 -3556 0
-3341 -3633 0
-3342 -3634 0
-3343 -3635 0
-3344 -3636 0
-3341 -3801 0
-3342 -3802 0
-3343 -3803 0
-3344 -3804 0
-3345 -3573 0
-3346 -3574 0
-3347 -3575 0
-3348 -3576 0
-3345 -3605 0
-3346 -3606 0
-3347 -3607 0
-3348 -3608 0
-3345 -3697 0
-3346 -3698 0
-3347 -3699 0
-3348 -3700 0
-3345 -3721 0
-3346 -3722 0
-3347 -3723 0
-3348 -3724 0
-3345 -3817 0
-3346 -3818 0
-3347 -3819 0
-3348 -3820 0
-3349 -3449 0
-3350 -3450 0
-3351 -3451 0
-3352 -3452 0
-3349 -3509 0
-3350 -3510 0
-3351 -3511 0
-3352 -3512 0
-3349 -3565 0
-3350 -3566 0
-3351 -3567 0
-3352 -3568 0
-3349 -3713 0
-3350 -3714 0
-3351 -3715 0
-3352 -3716 0
-3349 -3821 0
-3350 -3822 0
-3351 -3823 0
-3352 -3824 0
-3353 -3601 0
-3354 -3602 0
-3355 -3603 0
-3356 -3604 0
-3353 -3725 0
-3354 -3726 0
-3355 -3727 0
-3356 -3728 0
-3353 -3761 0
-3354 -3762 0
-3355 -3763 0
-3356 -3764 0
-3353 -3769 0
-3354 -3770 0
-3355 -3771 0
-3356 -3772 0
-3353 -3825 0
-3354 -3826 0
-3355 -3827 0
-3356 -3828 0
-3357 -3377 0
-3358 -3378 0
-3359 -3379 0
-3360 -3380 0
-3357 -3597 0
-3358 -3598 0
-3359 -3599 0
-3360 -3600 0
-3357 -3729 0
-3358 -3730 0
-3359 -3731 0
-3360 -3732 0
-3357 -3737 0
-3358 -3738 0
-3359 -3739 0
-3360 -3740 0
-3357 -3817 0
-3358 -3818 0
-3359 -3819 0
-3360 -3820 0
-3361 -3385 0
-3362 -3386 0
-3363 -3387 0
-3364 -3388 0
-3361 -3453 0
-3362 -3454 0
-3363 -3455 0
-3364 -3456 0
-3361 -3513 0
-3362 -3514 0
-3363 -3515 0
-3364 -3516 0
-3361 -3689 0
-3362 -3690 0
-3363 -3691 0
-3364 -3692 0
-3361 -3821 0
-3362 -3822 0
-3363 -3823 0
-3364 -3824 0
-3365 -3409 0
-3366 -3410 0
-3367 -3411 0
-3368 -3412 0
-3365 -3633 0
-3366 -3634 0
-3367 -3635 0
-3368 -3636 0
-3365 -3645 0
-3366 -3646 0
-3367 -3647 0
-3368 -3648 0
-3365 -3801 0
-3366 -3802 0
-3367 -3803 0
-3368 -3804 0
-3369 -3437 0
-3370 -3438 0
-3371 -3439 0
-3372 -3440 0
-3369 -3517 0
-3370 -3518 0
-3371 -3519 0
-3372 -3520 0
-3369 -3669 0
-3370 -3670 0
-3371 -3671 0
-3372 -3672 0
-3369 -3733 0
-3370 -3734 0
-3371 -3735 0
-3372 -3736 0
-3369 -3805 0
-3370 -3806 0
-3371 -3807 0
-3372 -3808 0
-3373 -3401 0
-3374 -3402 0
-3375 -3403 0
-3376 -3404 0
-3373 -3673 0
-3374 -3674 0
-3375 -3675 0
-3376 -3676 0
-3373 -3785 0
-3374 -3786 0
-3375 -3787 0
-3376 -3788 0
-3373 -3797 0
-3374 -3798 0
-3375 -3799 0
-3376 -3800 0
-3377 -3557 0
-3378 -3558 0
-3379 -3559 0
-3380 -3560 0
-3377 -3597 0
-3378 -3598 0
-3379 -3599 0
-3380 -3600 0
-3377 -3737 0
-3378 -3738 0
-3379 -3739 0
-3380 -3740 0
-3377 -3809 0
-3378 -3810 0
-3379 -3811 0
-3380 -3812 0
-3381 -3417 0
-3382 -3418 0
-3383 -3419 0
-3384 -3420 0
-3381 -3477 0
-3382 -3478 0
-3383 -3479 0
-3384 -3480 0
-3381 -3581 0
-3382 -3582 0
-3383 -3583 0
-3384 -3584 0
-3381 -3621 0
-3382 -3622 0
-3383 -3623 0
-3384 -3624 0
-3381 -3829 0
-3382 -3830 0
-3383 -3831 0
-3384 -3832 0
-3385 -3549 0
-3386 -3550 0
-3387 -3551 0
-3388 -3552 0
-3385 -3577 0
-3386 -3578 0
-3387 -3579 0
-3388 -3580 0
-3385 -3689 0
-3386 -3690 0
-3387 -3691 0
-3388 -3692 0
-3385 -3821 0
-3386 -3822 0
-3387 -3823 0
-3388 -3824 0
-3389 -3489 0
-3390 -3490 0
-3391 -3491 0
-3392 -3492 0
-3389 -3549 0
-3390 -3550 0
-3391 -3551 0
-3392 -3552 0
-3389 -3577 0
-3390 -3578 0
-3391 -3579 0
-3392 -3580 0
-3389 -3641 0
-3390 -3642 0
-3391 -3643 0
-3392 -3644 0
-3389 -3829 0
-3390 -3830 0
-3391 -3831 0
-3392 -3832 0
-3393 -3609 0
-3394 -3610 0
-3395 -3611 0
-3396 -3612 0
-3393 -3617 0
-3394 -3618 0
-3395 -3619 0
-3396 -3620 0
-3393 -3681 0
-3394 -3682 0
-3395 -3683 0
-3396 -3684 0
-3393 -3709 0
-3394 -3710 0
-3395 -3711 0
-3396 -3712 0
-3393 -3833 0
-3394 -3834 0
-3395 -3835 0
-3396 -3836 0
-3397 -3413 0
-3398 -3414 0
-3399 -3415 0
-3400 -3416 0
-3397 -3605 0
-3398 -3606 0
-3399 -3607 0
-3400 -3608 0
-3397 -3613 0
-3398 -3614 0
-3399 -3615 0
-3400 -3616 0
-3397 -3721 0
-3398 -3722 0
-3399 -3723 0
-3400 -3724 0
-3397 -3809 0
-3398 -3810 0
-3399 -3811 0
-3400 -3812 0
-3401 -3673 0
-3402 -3674 0
-3403 -3675 0
-3404 -3676 0
-3401 -3773 0
-3402 -3774 0
-3403 -3775 0
-3404 -3776 0
-3401 -3797 0
-3402 -3798 0
-3403 -3799 0
-3404 -3800 0
-3405 -3429 0
-3406 -3430 0
-3407 -3431 0
-3408 -3432 0
-3405 -3469 0
-3406 -3470 0
-3407 -3471 0
-3408 -3472 0
-3405 -3717 0
-3406 -3718 0
-3407 -3719 0
-3408 -3720 0
-3405 -3745 0
-3406 -3746 0
-3407 -3747 0
-3408 -3748 0
-3405 -3813 0
-3406 -3814 0
-3407 -3815 0
-3408 -3816 0
-3409 -3645 0
-3410 -3646 0
-3411 -3647 0
-3412 -3648 0
-3409 -3789 0
-3410 -3790 0
-3411 -3791 0
-3412 -3792 0
-3409 -3801 0
-3410 -3802 0
-3411 -3803 0
-3412 -3804 0
-3413 -3473 0
-3414 -3474 0
-3415 -3475 0
-3416 -3476 0
-3413 -3613 0
-3414 -3614 0
-3415 -3615 0
-3416 -3616 0
-3413 -3721 0
-3414 -3722 0
-3415 -3723 0
-3416 -3724 0
-3413 -3817 0
-3414 -3818 0
-3415 -3819 0
-3416 -3820 0
-3417 -3449 0
-3418 -3450 0
-3419 -3451 0
-3420 -3452 0
-3417 -3509 0
-3418 -3510 0
-3419 -3511 0
-3420 -3512 0
-3417 -3621 0
-3418 -3622 0
-3419 -3623 0
-3420 -3624 0
-3417 -3829 0
-3418 -3830 0
-3419 -3831 0
-3420 -3832 0
-3421 -3465 0
-3422 -3466 0
-3423 -3467 0
-3424 -3468 0
-3421 -3537 0
-3422 -3538 0
-3423 -3539 0
-3424 -3540 0
-3421 -3649 0
-3422 -3650 0
-3423 -3651 0
-3424 -3652 0
-3421 -3661 0
-3422 -3662 0
-3423 -3663 0
-3424 -3664 0
-3421 -3837 0
-3422 -3838 0
-3423 -3839 0
-3424 -3840 0
-3425 -3461 0
-3426 -3462 0
-3427 -3463 0
-3428 -3464 0
-3425 -3533 0
-3426 -3534 0
-3427 -3535 0
-3428 -3536 0
-3425 -3653 0
-3426 -3654 0
-3427 -3655 0
-3428 -3656 0
-3425 -3657 0
-3426 -3658 0
-3427 -3659 0
-3428 -3660 0
-3425 -3841 0
-3426 -3842 0
-3427 -3843 0
-3428 -3844 0
-3429 -3469 0
-3430 -3470 0
-3431 -3471 0
-3432 -3472 0
-3429 -3529 0
-3430 -3530 0
-3431 -3531 0
-3432 -3532 0
-3429 -3745 0
-3430 -3746 0
-3431 -3747 0
-3432 -3748 0
-3429 -3805 0
-3430 -3806 0
-3431 -3807 0
-3432 -3808 0
-3433 -3525 0
-3434 -3526 0
-3435 -3527 0
-3436 -3528 0
-3433 -3593 0
-3434 -3594 0
-3435 -3595 0
-3436 -3596 0
-3433 -3653 0
-3434 -3654 0
-3435 -3655 0
-3436 -3656 0
-3433 -3705 0
-3434 -3706 0
-3435 -3707 0
-3436 -3708 0
-3433 -3841 0
-3434 -3842 0
-3435 -3843 0
-3436 -3844 0
-3437 -3497 0
-3438 -3498 0
-3439 -3499 0
-3440 -3500 0
-3437 -3517 0
-3438 -3518 0
-3439 -3519 0
-3440 -3520 0
-3437 -3585 0
-3438 -3586 0
-3439 -3587 0
-3440 -3588 0
-3437 -3805 0
-3438 -3806 0
-3439 -3807 0
-3440 -3808 0
-3441 -3561 0
-3442 -3562 0
-3443 -3563 0
-3444 -3564 0
-3441 -3677 0
-3442 -3678 0
-3443 -3679 0
-3444 -3680 0
-3441 -3693 0
-3442 -3694 0
-3443 -3695 0
-3444 -3696 0
-3441 -3765 0
-3442 -3766 0
-3443 -3767 0
-3444 -3768 0
-3441 -3825 0
-3442 -3826 0
-3443 -3827 0
-3444 -3828 0
-3445 -3473 0
-3446 -3474 0
-3447 -3475 0
-3448 -3476 0
-3445 -3573 0
-3446 -3574 0
-3447 -3575 0
-3448 -3576 0
-3445 -3613 0
-3446 -3614 0
-3447 -3615 0
-3448 -3616 0
-3445 -3697 0
-3446 -3698 0
-3447 -3699 0
-3448 -3700 0
-3445 -3809 0
-3446 -3810 0
-3447 -3811 0
-3448 -3812 0
-3449 -3509 0
-3450 -3510 0
-3451 -3511 0
-3452 -3512 0
-3449 -3621 0
-3450 -3622 0
-3451 -3623 0
-3452 -3624 0
-3449 -3821 0
-3450 -3822 0
-3451 -3823 0
-3452 -3824 0
-3453 -3513 0
-3454 -3514 0
-3455 -3515 0
-3456 -3516 0
-3453 -3641 0
-3454 -3642 0
-3455 -3643 0
-3456 -3644 0
-3453 -3689 0
-3454 -3690 0
-3455 -3691 0
-3456 -3692 0
-3453 -3829 0
-3454 -3830 0
-3455 -3831 0
-3456 -3832 0
-3457 -3501 0
-3458 -3502 0
-3459 -3503 0
-3460 -3504 0
-3457 -3773 0
-3458 -3774 0
-3459 -3775 0
-3460 -3776 0
-3457 -3793 0
-3458 -3794 0
-3459 -3795 0
-3460 -3796 0
-3457 -3801 0
-3458 -3802 0
-3459 -3803 0
-3460 -3804 0
-3461 -3533 0
-3462 -3534 0
-3463 -3535 0
-3464 -3536 0
-3461 -3657 0
-3462 -3658 0
-3463 -3659 0
-3464 -3660 0
-3461 -3749 0
-3462 -3750 0
-3463 -3751 0
-3464 -3752 0
-3461 -3837 0
-3462 -3838 0
-3463 -3839 0
-3464 -3840 0
-3465 -3537 0
-3466 -3538 0
-3467 -3539 0
-3468 -3540 0
-3465 -3661 0
-3466 -3662 0
-3467 -3663 0
-3468 -3664 0
-3465 -3753 0
-3466 -3754 0
-3467 -3755 0
-3468 -3756 0
-3465 -3841 0
-3466 -3842 0
-3467 -3843 0
-3468 -3844 0
-3469 -3529 0
-3470 -3530 0
-3471 -3531 0
-3472 -3532 0
-3469 -3569 0
-3470 -3570 0
-3471 -3571 0
-3472 -3572 0
-3469 -3813 0
-3470 -3814 0
-3471 -3815 0
-3472 -3816 0
-3473 -3573 0
-3474 -3574 0
-3475 -3575 0
-3476 -3576 0
-3473 -3613 0
-3474 -3614 0
-3475 -3615 0
-3476 -3616 0
-3473 -3817 0
-3474 -3818 0
-3475 -3819 0
-3476 -3820 0
-3477 -3581 0
-3478 -3582 0
-3479 -3583 0
-3480 -3584 0
-3477 -3621 0
-3478 -3622 0
-3479 -3623 0
-3480 -3624 0
-3477 -3713 0
-3478 -3714 0
-3479 -3715 0
-3480 -3716 0
-3477 -3821 0
-3478 -3822 0
-3479 -3823 0
-3480 -3824 0
-3481 -3545 0
-3482 -3546 0
-3483 -3547 0
-3484 -3548 0
-3481 -3601 0
-3482 -3602 0
-3483 -3603 0
-3484 -3604 0
-3481 -3625 0
-3482 -3626 0
-3483 -3627 0
-3484 -3628 0
-3481 -3685 0
-3482 -3686 0
-3483 -3687 0
-3484 -3688 0
-3481 -3825 0
-3482 -3826 0
-3483 -3827 0
-3484 -3828 0
-3485 -3505 0
-3486 -3506 0
-3487 -3507 0
-3488 -3508 0
-3485 -3557 0
-3486 -3558 0
-3487 -3559 0
-3488 -3560 0
-3485 -3597 0
-3486 -3598 0
-3487 -3599 0
-3488 -3600 0
-3485 -3629 0
-3486 -3630 0
-3487 -3631 0
-3488 -3632 0
-3485 -3817 0
-3486 -3818 0
-3487 -3819 0
-3488 -3820 0
-3489 -3513 0
-3490 -3514 0
-3491 -3515 0
-3492 -3516 0
-3489 -3577 0
-3490 -3578 0
-3491 -3579 0
-3492 -3580 0
-3489 -3641 0
-3490 -3642 0
-3491 -3643 0
-3492 -3644 0
-3489 -3821 0
-3490 -3822 0
-3491 -3823 0
-3492 -3824 0
-3493 -3553 0
-3494 -3554 0
-3495 -3555 0
-3496 -3556 0
-3493 -3781 0
-3494 -3782 0
-3495 -3783 0
-3496 -3784 0
-3493 -3801 0
-3494 -3802 0
-3495 -3803 0
-3496 -3804 0
-3497 -3585 0
-3498 -3586 0
-3499 -3587 0
-3500 -3588 0
-3497 -3741 0
-3498 -3742 0
-3499 -3743 0
-3500 -3744 0
-3497 -3805 0
-3498 -3806 0
-3499 -3807 0
-3500 -3808 0
-3501 -3793 0
-3502 -3794 0
-3503 -3795 0
-3504 -3796 0
-3501 -3797 0
-3502 -3798 0
-3503 -3799 0
-3504 -3800 0
-3505 -3557 0
-3506 -3558 0
-3507 -3559 0
-3508 -3560 0
-3505 -3629 0
-3506 -3630 0
-3507 -3631 0
-3508 -3632 0
-3505 -3809 0
-3506 -3810 0
-3507 -3811 0
-3508 -3812 0
-3509 -3565 0
-3510 -3566 0
-3511 -3567 0
-3512 -3568 0
-3509 -3829 0
-3510 -3830 0
-3511 -3831 0
-3512 -3832 0
-3513 -3641 0
-3514 -3642 0
-3515 -3643 0
-3516 -3644 0
-3513 -3821 0
-3514 -3822 0
-3515 -3823 0
-3516 -3824 0
-3517 -3585 0
-3518 -3586 0
-3519 -3587 0
-3520 -3588 0
-3517 -3669 0
-3518 -3670 0
-3519 -3671 0
-3520 -3672 0
-3517 -3813 0
-3518 -3814 0
-3519 -3815 0
-3520 -3816 0
-3521 -3541 0
-3522 -3542 0
-3523 -3543 0
-3524 -3544 0
-3521 -3589 0
-3522 -3590 0
-3523 -3591 0
-3524 -3592 0
-3521 -3701 0
-3522 -3702 0
-3523 -3703 0
-3524 -3704 0
-3521 -3753 0
-3522 -3754 0
-3523 -3755 0
-3524 -3756 0
-3521 -3841 0
-3522 -3842 0
-3523 -3843 0
-3524 -3844 0
-3525 -3593 0
-3526 -3594 0
-3527 -3595 0
-3528 -3596 0
-3525 -3705 0
-3526 -3706 0
-3527 -3707 0
-3528 -3708 0
-3525 -3749 0
-3526 -3750 0
-3527 -3751 0
-3528 -3752 0
-3525 -3837 0
-3526 -3838 0
-3527 -3839 0
-3528 -3840 0
-3529 -3569 0
-3530 -3570 0
-3531 -3571 0
-3532 -3572 0
-3529 -3777 0
-3530 -3778 0
-3531 -3779 0
-3532 -3780 0
-3529 -3805 0
-3530 -3806 0
-3531 -3807 0
-3532 -3808 0
-3533 -3593 0
-3534 -3594 0
-3535 -3595 0
-3536 -3596 0
-3533 -3653 0
-3534 -3654 0
-3535 -3655 0
-3536 -3656 0
-3533 -3837 0
-3534 -3838 0
-3535 -3839 0
-3536 -3840 0
-3537 -3589 0
-3538 -3590 0
-3539 -3591 0
-3540 -3592 0
-3537 -3649 0
-3538 -3650 0
-3539 -3651 0
-3540 -3652 0
-3537 -3841 0
-3538 -3842 0
-3539 -3843 0
-3540 -3844 0
-3541 -3589 0
-3542 -3590 0
-3543 -3591 0
-3544 -3592 0
-3541 -3649 0
-3542 -3650 0
-3543 -3651 0
-3544 -3652 0
-3541 -3701 0
-3542 -3702 0
-3543 -3703 0
-3544 -3704 0
-3541 -3837 0
-3542 -3838 0
-3543 -3839 0
-3544 -3840 0
-3545 -3625 0
-3546 -3626 0
-3547 -3627 0
-3548 -3628 0
-3545 -3685 0
-3546 -3686 0
-3547 -3687 0
-3548 -3688 0
-3545 -3757 0
-3546 -3758 0
-3547 -3759 0
-3548 -3760 0
-3545 -3833 0
-3546 -3834 0
-3547 -3835 0
-3548 -3836 0
-3549 -3577 0
-3550 -3578 0
-3551 -3579 0
-3552 -3580 0
-3549 -3689 0
-3550 -3690 0
-3551 -3691 0
-3552 -3692 0
-3549 -3829 0
-3550 -3830 0
-3551 -3831 0
-3552 -3832 0
-3553 -3633 0
-3554 -3634 0
-3555 -3635 0
-3556 -3636 0
-3553 -3781 0
-3554 -3782 0
-3555 -3783 0
-3556 -3784 0
-3553 -3797 0
-3554 -3798 0
-3555 -3799 0
-3556 -3800 0
-3557 -3597 0
-3558 -3598 0
-3559 -3599 0
-3560 -3600 0
-3557 -3809 0
-3558 -3810 0
-3559 -3811 0
-3560 -3812 0
-3561 -3617 0
-3562 -3618 0
-3563 -3619 0
-3564 -3620 0
-3561 -3693 0
-3562 -3694 0
-3563 -3695 0
-3564 -3696 0
-3561 -3765 0
-3562 -3766 0
-3563 -3767 0
-3564 -3768 0
-3561 -3833 0
-3562 -3834 0
-3563 -3835 0
-3564 -3836 0
-3565 -3581 0
-3566 -3582 0
-3567 -3583 0
-3568 -3584 0
-3565 -3713 0
-3566 -3714 0
-3567 -3715 0
-3568 -3716 0
-3565 -3829 0
-3566 -3830 0
-3567 -3831 0
-3568 -3832 0
-3569 -3777 0
-3570 -3778 0
-3571 -3779 0
-3572 -3780 0
-3569 -3813 0
-3570 -3814 0
-3571 -3815 0
-3572 -3816 0
-3573 -3697 0
-3574 -3698 0
-3575 -3699 0
-3576 -3700 0
-3573 -3817 0
-3574 -3818 0
-3575 -3819 0
-3576 -3820 0
-3577 -3821 0
-3578 -3822 0
-3579 -3823 0
-3580 -3824 0
-3581 -3713 0
-3582 -3714 0
-3583 -3715 0
-3584 -3716 0
-3581 -3829 0
-3582 -3830 0
-3583 -3831 0
-3584 -3832 0
-3585 -3741 0
-3586 -3742 0
-3587 -3743 0
-3588 -3744 0
-3585 -3813 0
-3586 -3814 0
-3587 -3815 0
-3588 -3816 0
-3589 -3649 0
-3590 -3650 0
-3591 -3651 0
-3592 -3652 0
-3589 -3841 0
-3590 -3842 0
-3591 -3843 0
-3592 -3844 0
-3593 -3653 0
-3594 -3654 0
-3595 -3655 0
-3596 -3656 0
-3593 -3837 0
-3594 -3838 0
-3595 -3839 0
-3596 -3840 0
-3597 -3817 0
-3598 -3818 0
-3599 -3819 0
-3600 -3820 0
-3601 -3685 0
-3602 -3686 0
-3603 -3687 0
-3604 -3688 0
-3601 -3769 0
-3602 -3770 0
-3603 -3771 0
-3604 -3772 0
-3601 -3825 0
-3602 -3826 0
-3603 -3827 0
-3604 -3828 0
-3605 -3697 0
-3606 -3698 0
-3607 -3699 0
-3608 -3700 0
-3605 -3721 0
-3606 -3722 0
-3607 -3723 0
-3608 -3724 0
-3605 -3809 0
-3606 -3810 0
-3607 -3811 0
-3608 -3812 0
-3609 -3677 0
-3610 -3678 0
-3611 -3679 0
-3612 -3680 0
-3609 -3681 0
-3610 -3682 0
-3611 -3683 0
-3612 -3684 0
-3609 -3693 0
-3610 -3694 0
-3611 -3695 0
-3612 -3696 0
-3609 -3833 0
-3610 -3834 0
-3611 -3835 0
-3612 -3836 0
-3613 -3809 0
-3614 -3810 0
-3615 -3811 0
-3616 -3812 0
-3617 -3709 0
-3618 -3710 0
-3619 -3711 0
-3620 -3712 0
-3617 -3765 0
-3618 -3766 0
-3619 -3767 0
-3620 -3768 0
-3617 -3833 0
-3618 -3834 0
-3619 -3835 0
-3620 -3836 0
-3621 -3821 0
-3622 -3822 0
-3623 -3823 0
-3624 -3824 0
-3625 -3725 0
-3626 -3726 0
-3627 -3727 0
-3628 -3728 0
-3625 -3757 0
-3626 -3758 0
-3627 -3759 0
-3628 -3760 0
-3625 -3825 0
-3626 -3826 0
-3627 -3827 0
-3628 -3828 0
-3629 -3729 0
-3630 -3730 0
-3631 -3731 0
-3632 -3732 0
-3629 -3817 0
-3630 -3818 0
-3631 -3819 0
-3632 -3820 0
-3633 -3645 0
-3634 -3646 0
-3635 -3647 0
-3636 -3648 0
-3633 -3797 0
-3634 -3798 0
-3635 -3799 0
-3636 -3800 0
-3637 -3717 0
-3638 -3718 0
-3639 -3719 0
-3640 -3720 0
-3637 -3745 0
-3638 -3746 0
-3639 -3747 0
-3640 -3748 0
-3637 -3777 0
-3638 -3778 0
-3639 -3779 0
-3640 -3780 0
-3637 -3805 0
-3638 -3806 0
-3639 -3807 0
-3640 -3808 0
-3641 -3829 0
-3642 -3830 0
-3643 -3831 0
-3644 -3832 0
-3645 -3789 0
-3646 -3790 0
-3647 -3791 0
-3648 -3792 0
-3645 -3797 0
-3646 -3798 0
-3647 -3799 0
-3648 -3800 0
-3649 -3837 0
-3650 -3838 0
-3651 -3839 0
-3652 -3840 0
-3653 -3841 0
-3654 -3842 0
-3655 -3843 0
-3656 -3844 0
-3657 -3705 0
-3658 -3706 0
-3659 -3707 0
-3660 -3708 0
-3657 -3749 0
-3658 -3750 0
-3659 -3751 0
-3660 -3752 0
-3657 -3841 0
-3658 -3842 0
-3659 -3843 0
-3660 -3844 0
-3661 -3701 0
-3662 -3702 0
-3663 -3703 0
-3664 -3704 0
-3661 -3753 0
-3662 -3754 0
-3663 -3755 0
-3664 -3756 0
-3661 -3837 0
-3662 -3838 0
-3663 -3839 0
-3664 -3840 0
-3665 -3669 0
-3666 -3670 0
-3667 -3671 0
-3668 -3672 0
-3665 -3733 0
-3666 -3734 0
-3667 -3735 0
-3668 -3736 0
-3665 -3741 0
-3666 -3742 0
-3667 -3743 0
-3668 -3744 0
-3665 -3813 0
-3666 -3814 0
-3667 -3815 0
-3668 -3816 0
-3669 -3733 0
-3670 -3734 0
-3671 -3735 0
-3672 -3736 0
-3669 -3813 0
-3670 -3814 0
-3671 -3815 0
-3672 -3816 0
-3673 -3773 0
-3674 -3774 0
-3675 -3775 0
-3676 -3776 0
-3673 -3785 0
-3674 -3786 0
-3675 -3787 0
-3676 -3788 0
-3673 -3801 0
-3674 -3802 0
-3675 -3803 0
-3676 -3804 0
-3677 -3681 0
-3678 -3682 0
-3679 -3683 0
-3680 -3684 0
-3677 -3693 0
-3678 -3694 0
-3679 -3695 0
-3680 -3696 0
-3677 -3825 0
-3678 -3826 0
-3679 -3827 0
-3680 -3828 0
-3681 -3709 0
-3682 -3710 0
-3683 -3711 0
-3684 -3712 0
-3681 -3825 0
-3682 -3826 0
-3683 -3827 0
-3684 -3828 0
-3685 -3769 0
-3686 -3770 0
-3687 -3771 0
-3688 -3772 0
-3685 -3833 0
-3686 -3834 0
-3687 -3835 0
-3688 -3836 0
-3689 -3829 0
-3690 -3830 0
-3691 -3831 0
-3692 -3832 0
-3693 -3833 0
-3694 -3834 0
-3695 -3835 0
-3696 -3836 0
-3697 -3809 0
-3698 -3810 0
-3699 -3811 0
-3700 -3812 0
-3701 -3753 0
-3702 -3754 0
-3703 -3755 0
-3704 -3756 0
-3701 -3837 0
-3702 -3838 0
-3703 -3839 0
-3704 -3840 0
-3705 -3749 0
-3706 -3750 0
-3707 -3751 0
-3708 -3752 0
-3705 -3841 0
-3706 -3842 0
-3707 -3843 0
-3708 -3844 0
-3709 -3765 0
-3710 -3766 0
-3711 -3767 0
-3712 -3768 0
-3709 -3825 0
-3710 -3826 0
-3711 -3827 0
-3712 -3828 0
-3713 -3821 0
-3714 -3822 0
-3715 -3823 0
-3716 -3824 0
-3717 -3745 0
-3718 -3746 0
-3719 -3747 0
-3720 -3748 0
-3717 -3813 0
-3718 -3814 0
-3719 -3815 0
-3720 -3816 0
-3721 -3817 0
-3722 -3818 0
-3723 -3819 0
-3724 -3820 0
-3725 -3757 0
-3726 -3758 0
-3727 -3759 0
-3728 -3760 0
-3725 -3761 0
-3726 -3762 0
-3727 -3763 0
-3728 -3764 0
-3725 -3825 0
-3726 -3826 0
-3727 -3827 0
-3728 -3828 0
-3729 -3737 0
-3730 -3738 0
-3731 -3739 0
-3732 -3740 0
-3729 -3817 0
-3730 -3818 0
-3731 -3819 0
-3732 -3820 0
-3733 -3805 0
-3734 -3806 0
-3735 -3807 0
-3736 -3808 0
-3737 -3809 0
-3738 -3810 0
-3739 -3811 0
-3740 -3812 0
-3741 -3813 0
-3742 -3814 0
-3743 -3815 0
-3744 -3816 0
-3745 -3805 0
-3746 -3806 0
-3747 -3807 0
-3748 -3808 0
-3749 -3837 0
-3750 -3838 0
-3751 -3839 0
-3752 -3840 0
-3753 -3841 0
-3754 -3842 0
-3755 -3843 0
-3756 -3844 0
-3757 -3761 0
-3758 -3762 0
-3759 -3763 0
-3760 -3764 0
-3757 -3833 0
-3758 -3834 0
-3759 -3835 0
-3760 -3836 0
-3761 -3769 0
-3762 -3770 0
-3763 -3771 0
-3764 -3772 0
-3761 -3833 0
-3762 -3834 0
-3763 -3835 0
-3764 -3836 0
-3765 -3825 0
-3766 -3826 0
-3767 -3827 0
-3768 -3828 0
-3769 -3833 0
-3770 -3834 0
-3771 -3835 0
-3772 -3836 0
-3773 -3801 0
-3774 -3802 0
-3775 -3803 0
-3776 -3804 0
-3777 -3805 0
-3778 -3806 0
-3779 -3807 0
-3780 -3808 0
-3781 -3789 0
-3782 -3790 0
-3783 -3791 0
-3784 -3792 0
-3781 -3797 0
-3782 -3798 0
-3783 -3799 0
-3784 -3800 0
-3785 -3793 0
-3786 -3794 0
-3787 -3795 0
-3788 -3796 0
-3785 -3801 0
-3786 -3802 0
-3787 -3803 0
-3788 -3804 0
-3789 -3797 0
-3790 -3798 0
-3791 -3799 0
-3792 -3800 0
-3793 -3801 0
-3794 -3802 0
-3795 -3803 0
-3796 -3804 0
-3797 -3809 0
-3798 -3810 0
-3799 -3811 0
-3800 -3812 0
-3797 -3813 0
-3798 -3814 0
-3799 -3815 0
-3800 -3816 0
-3797 -3821 0
-3798 -3822 0
-3799 -3823 0
-3800 -3824 0
-3797 -3833 0
-3798 -3834 0
-3799 -3835 0
-3800 -3836 0
-3797 -3841 0
-3798 -3842 0
-3799 -3843 0
-3800 -3844 0
-3801 -3805 0
-3802 -3806 0
-3803 -3807 0
-3804 -3808 0
-3801 -3817 0
-3802 -3818 0
-3803 -3819 0
-3804 -3820 0
-3801 -3825 0
-3802 -3826 0
-3803 -3827 0
-3804 -3828 0
-3801 -3829 0
-3802 -3830 0
-3803 -3831 0
-3804 -3832 0
-3801 -3837 0
-3802 -3838 0
-3803 -3839 0
-3804 -3840 0
-3805 -3809 0
-3806 -3810 0
-3807 -3811 0
-3808 -3812 0
-3805 -3829 0
-3806 -3830 0
-3807 -3831 0
-3808 -3832 0
-3805 -3833 0
-3806 -3834 0
-3807 -3835 0
-3808 -3836 0
-3805 -3837 0
-3806 -3838 0
-3807 -3839 0
-3808 -3840 0
-3809 -3829 0
-3810 -3830 0
-3811 -3831 0
-3812 -3832 0
-3809 -3833 0
-3810 -3834 0
-3811 -3835 0
-3812 -3836 0
-3809 -3841 0
-3810 -3842 0
-3811 -3843 0
-3812 -3844 0
-3813 -3817 0
-3814 -3818 0
-3815 -3819 0
-3816 -3820 0
-3813 -3821 0
-3814 -3822 0
-3815 -3823 0
-3816 -3824 0
-3813 -3825 0
-3814 -3826 0
-3815 -3827 0
-3816 -3828 0
-3813 -3841 0
-3814 -3842 0
-3815 -3843 0
-3816 -3844 0
-3817 -3821 0
-3818 -3822 0
-3819 -3823 0
-3820 -3824 0
-3817 -3825 0
-3818 -3826 0
-3819 -3827 0
-3820 -3828 0
-3817 -3837 0
-3818 -3838 0
-3819 -3839 0
-3820 -3840 0
-3821 -3833 0
-3822 -3834 0
-3823 -3835 0
-3824 -3836 0
-3821 -3837 0
-3822 -3838 0
-3823 -3839 0
-3824 -3840 0
-3825 -3829 0
-3826 -3830 0
-3827 -3831 0
-3828 -3832 0
-3825 -3841 0
-3826 -3842 0
-3827 -3843 0
-3828 -3844 0
-3829 -3841 0
-3830 -3842 0
-3831 -3843 0
-3832 -3844 0
-3833 -3837 0
-3834 -3838 0
-3835 -3839 0
-3836 -3840 0
-1 -2 0
-1 -3 0
-1 -4 0
-2 -3 0
-2 -4 0
-3 -4 0
-5 -6 0
-5 -7 0
-5 -8 0
-6 -7 0
-6 -8 0
-7 -8 0
-9 -10 0
-9 -11 0
-9 -12 0
-10 -11 0
-10 -12 0
-11 -12 0
-13 -14 0
-13 -15 0
-13 -16 0
-14 -15 0
-14 -16 0
-15 -16 0
-17 -18 0
-17 -19 0
-17 -20 0
-18 -19 0
-18 -20 0
-19 -20 0
-21 -22 0
-21 -23 0
-21 -24 0
-22 -23 0
-22 -24 0
-23 -24 0
-25 -26 0
-25 -27 0
-25 -28 0
-26 -27 0
-26 -28 0
-27 -28 0
-29 -30 0
-29 -31 0
-29 -32 0
-30 -31 0
-30 -32 0
-31 -32 0
-33 -34 0
-33 -35 0
-33 -36 0
-34 -35 0
-34 -36 0
-35 -36 0
-37 -38 0
-37 -39 0
-37 -40 0
-38 -39 0
-38 -40 0
-39 -40 0
-41 -42 0
-41 -43 0
-41 -44 0
-42 -43 0
-42 -44 0
-43 -44 0
-45 -46 0
-45 -47 0
-45 -48 0
-46 -47 0
-46 -48 0
-47 -48 0
-49 -50 0
-49 -51 0
-49 -52 0
-50 -51 0
-50 -52 0
-51 -52 0
-53 -54 0
-53 -55 0
-53 -56 0
-54 -55 0
-54 -56 0
-55 -56 0
-57 -58 0
-57 -59 0
-57 -60 0
-58 -59 0
-58 -60 0
-59 -60 0
-61 -62 0
-61 -63 0
-61 -64 0
-62 -63 0
-62 -64 0
-63 -64 0
-65 -66 0
-65 -67 0
-65 -68 0
-66 -67 0
-66 -68 0
-67 -68 0
-69 -70 0
-69 -71 0
-69 -72 0
-70 -71 0
-70 -72 0
-71 -72 0
-73 -74 0
-73 -75 0
-73 -76 0
-74 -75 0
-74 -76 0
-75 -76 0
-77 -78 0
-77 -79 0
-77 -80 0
-78 -79 0
-78 -80 0
-79 -80 0
-81 -82 0
-81 -83 0
-81 -84 0
-82 -83 0
-82 -84 0
-83 -84 0
-85 -86 0
-85 -87 0
-85 -88 0
-86 -87 0
-86 -88 0
-87 -88 0
-89 -90 0
-89 -91 0
-89 -92 0
-90 -91 0
-90 -92 0
-91 -92 0
-93 -94 0
-93 -95 0
-93 -96 0
-94 -95 0
-94 -96 0
-95 -96 0
-97 -98 0
-97 -99 0
-97 -100 0
-98 -99 0
-98 -100 0
-99 -100 0
-101 -102 0
-101 -103 0
-101 -104 0
-102 -103 0
-102 -104 0
-103 -104 0
-105 -106 0
-105 -107 0
-105 -108 0
-106 -107 0
-106 -108 0
-107 -108 0
-109 -110 0
-109 -111 0
-109 -112 0
-110 -111 0
-110 -112 0
-111 -112 0
-113 -114 0
-113 -115 0
-113 -116 0
-114 -115 0
-114 -116 0
-115 -116 0
-117 -118 0
-117 -119 0
-117 -120 0
-118 -119 0
-118 -120 0
-119 -120 0
-121 -122 0
-121 -123 0
-121 -124 0
-122 -123 0
-122 -124 0
-123 -124 0
-125 -126 0
-125 -127 0
-125 -128 0
-126 -127 0
-126 -128 0
-127 -128 0
-129 -130 0
-129 -131 0
-129 -132 0
-130 -131 0
-130 -132 0
-131 -132 0
-133 -134 0
-133 -135 0
-133 -136 0
-134 -135 0
-134 -136 0
-135 -136 0
-137 -138 0
-137 -139 0
-137 -140 0
-138 -139 0
-138 -140 0
-139 -140 0
-141 -142 0
-141 -143 0
-141 -144 0
-142 -143 0
-142 -144 0
-143 -144 0
-145 -146 0
-145 -147 0
-145 -148 0
-146 -147 0
-146 -148 0
-147 -148 0
-149 -150 0
-149 -151 0
-149 -152 0
-150 -151 0
-150 -152 0
-151 -152 0
-153 -154 0
-153 -155 0
-153 -156 0
-154 -155 0
-154 -156 0
-155 -156 0
-157 -158 0
-157 -159 0
-157 -160 0
-158 -159 0
-158 -160 0
-159 -160 0
-161 -162 0
-161 -163 0
-161 -164 0
-162 -163 0
-162 -164 0
-163 -164 0
-165 -166 0
-165 -167 0
-165 -168 0
-166 -167 0
-166 -168 0
-167 -168 0
-169 -170 0
-169 -171 0
-169 -172 0
-170 -171 0
-170 -172 0
-171 -172 0
-173 -174 0
-173 -175 0
-173 -176 0
-174 -175 0
-174 -176 0
-175 -176 0
-177 -178 0
-177 -179 0
-177 -180 0
-178 -179 0
-178 -180 0
-179 -180 0
-181 -182 0
-181 -183 0
-181 -184 0
-182 -183 0
-182 -184 0
-183 -184 0
-185 -186 0
-185 -187 0
-185 -188 0
-186 -187 0
-186 -188 0
-187 -188 0
-189 -190 0
-189 -191 0
-189 -192 0
-190 -191 0
-190 -192 0
-191 -192 0
-193 -194 0
-193 -195 0
-193 -196 0
-194 -195 0
-194 -196 0
-195 -196 0
-197 -198 0
-197 -199 0
-197 -200 0
-198 -199 0
-198 -200 0
-199 -200 0
-201 -202 0
-201 -203 0
-201 -204 0
-202 -203 0
-202 -204 0
-203 -204 0
-205 -206 0
-205 -207 0
-205 -208 0
-206 -207 0
-206 -208 0
-207 -208 0
-209 -210 0
-209 -211 0
-209 -212 0
-210 -211 0
-210 -212 0
-211 -212 0
-213 -214 0
-213 -215 0
-213 -216 0
-214 -215 0
-214 -216 0
-215 -216 0
-217 -218 0
-217 -219 0
-217 -220 0
-218 -219 0
-218 -220 0
-219 -220 0
-221 -222 0
-221 -223 0
-221 -224 0
-222 -223 0
-222 -224 0
-223 -224 0
-225 -226 0
-225 -227 0
-225 -228 0
-226 -227 0
-226 -228 0
-227 -228 0
-229 -230 0
-229 -231 0
-229 -232 0
-230 -231 0
-230 -232 0
-231 -232 0
-233 -234 0
-233 -235 0
-233 -236 0
-234 -235 0
-234 -236 0
-235 -236 0
-237 -238 0
-237 -239 0
-237 -240 0
-238 -239 0
-238 -240 0
-239 -240 0
-241 -242 0
-241 -243 0
-241 -244 0
-242 -243 0
-242 -244 0
-243 -244 0
-245 -246 0
-245 -247 0
-245 -248 0
-246 -247 0
-246 -248 0
-247 -248 0
-249 -250 0
-249 -251 0
-249 -252 0
-250 -251 0
-250 -252 0
-251 -252 0
-253 -254 0
-253 -255 0
-253 -256 0
-254 -255 0
-254 -256 0
-255 -256 0
-257 -258 0
-257 -259 0
-257 -260 0
-258 -259 0
-258 -260 0
-259 -260 0
-261 -262 0
-261 -263 0
-261 -264 0
-262 -263 0
-262 -264 0
-263 -264 0
-265 -266 0
-265 -267 0
-265 -268 0
-266 -267 0
-266 -268 0
-267 -268 0
-269 -270 0
-269 -271 0
-269 -272 0
-270 -271 0
-270 -272 0
-271 -272 0
-273 -274 0
-273 -275 0
-273 -276 0
-274 -275 0
-274 -276 0
-275 -276 0
-277 -278 0
-277 -279 0
-277 -280 0
-278 -279 0
-278 -280 0
-279 -280 0
-281 -282 0
-281 -283 0
-281 -284 0
-282 -283 0
-282 -284 0
-283 -284 0
-285 -286 0
-285 -287 0
-285 -288 0
-286 -287 0
-286 -288 0
-287 -288 0
-289 -290 0
-289 -291 0
-289 -292 0
-290 -291 0
-290 -292 0
-291 -292 0
-293 -294 0
-293 -295 0
-293 -296 0
-294 -295 0
-294 -296 0
-295 -296 0
-297 -298 0
-297 -299 0
-297 -300 0
-298 -299 0
-298 -300 0
-299 -300 0
-301 -302 0
-301 -303 0
-301 -304 0
-302 -303 0
-302 -304 0
-303 -304 0
-305 -306 0
-305 -307 0
-305 -308 0
-306 -307 0
-306 -308 0
-307 -308 0
-309 -310 0
-309 -311 0
-309 -312 0
-310 -311 0
-310 -312 0
-311 -312 0
-313 -314 0
-313 -315 0
-313 -316 0
-314 -315 0
-314 -316 0
-315 -316 0
-317 -318 0
-317 -319 0
-317 -320 0
-318 -319 0
-318 -320 0
-319 -320 0
-321 -322 0
-321 -323 0
-321 -324 0
-322 -323 0
-322 -324 0
-323 -324 0
-325 -326 0
-325 -327 0
-325 -328 0
-326 -327 0
-326 -328 0
-327 -328 0
-329 -330 0
-329 -331 0
-329 -332 0
-330 -331 0
-330 -332 0
-331 -332 0
-333 -334 0
-333 -335 0
-333 -336 0
-334 -335 0
-334 -336 0
-335 -336 0
-337 -338 0
-337 -339 0
-337 -340 0
-338 -339 0
-338 -340 0
-339 -340 0
-341 -342 0
-341 -343 0
-341 -344 0
-342 -343 0
-342 -344 0
-343 -344 0
-345 -346 0
-345 -347 0
-345 -348 0
-346 -347 0
-346 -348 0
-347 -348 0
-349 -350 0
-349 -351 0
-349 -352 0
-350 -351 0
-350 -352 0
-351 -352 0
-353 -354 0
-353 -355 0
-353 -356 0
-354 -355 0
-354 -356 0
-355 -356 0
-357 -358 0
-357 -359 0
-357 -360 0
-358 -359 0
-358 -360 0
-359 -360 0
-361 -362 0
-361 -363 0
-361 -364 0
-362 -363 0
-362 -364 0
-363 -364 0
-365 -366 0
-365 -367 0
-365 -368 0
-366 -367 0
-366 -368 0
-367 -368 0
-369 -370 0
-369 -371 0
-369 -372 0
-370 -371 0
-370 -372 0
-371 -372 0
-373 -374 0
-373 -375 0
-373 -376 0
-374 -375 0
-374 -376 0
-375 -376 0
-377 -378 0
-377 -379 0
-377 -380 0
-378 -379 0
-378 -380 0
-379 -380 0
-381 -382 0
-381 -383 0
-381 -384 0
-382 -383 0
-382 -384 0
-383 -384 0
-385 -386 0
-385 -387 0
-385 -388 0
-386 -387 0
-386 -388 0
-387 -388 0
-389 -390 0
-389 -391 0
-389 -392 0
-390 -391 0
-390 -392 0
-391 -392 0
-393 -394 0
-393 -395 0
-393 -396 0
-394 -395 0
-394 -396 0
-395 -396 0
-397 -398 0
-397 -399 0
-397 -400 0
-398 -399 0
-398 -400 0
-399 -400 0
-401 -402 0
-401 -403 0
-401 -404 0
-402 -403 0
-402 -404 0
-403 -404 0
-405 -406 0
-405 -407 0
-405 -408 0
-406 -407 0
-406 -408 0
-407 -408 0
-409 -410 0
-409 -411 0
-409 -412 0
-410 -411 0
-410 -412 0
-411 -412 0
-413 -414 0
-413 -415 0
-413 -416 0
-414 -415 0
-414 -416 0
-415 -416 0
-417 -418 0
-417 -419 0
-417 -420 0
-418 -419 0
-418 -420 0
-419 -420 0
-421 -422 0
-421 -423 0
-421 -424 0
-422 -423 0
-422 -424 0
-423 -424 0
-425 -426 0
-425 -427 0
-425 -428 0
-426 -427 0
-426 -428 0
-427 -428 0
-429 -430 0
-429 -431 0
-429 -432 0
-430 -431 0
-430 -432 0
-431 -432 0
-433 -434 0
-433 -435 0
-433 -436 0
-434 -435 0
-434 -436 0
-435 -436 0
-437 -438 0
-437 -439 0
-437 -440 0
-438 -439 0
-438 -440 0
-439 -440 0
-441 -442 0
-441 -443 0
-441 -444 0
-442 -443 0
-442 -444 0
-443 -444 0
-445 -446 0
-445 -447 0
-445 -448 0
-446 -447 0
-446 -448 0
-447 -448 0
-449 -450 0
-449 -451 0
-449 -452 0
-450 -451 0
-450 -452 0
-451 -452 0
-453 -454 0
-453 -455 0
-453 -456 0
-454 -455 0
-454 -456 0
-455 -456 0
-457 -458 0
-457 -459 0
-457 -460 0
-458 -459 0
-458 -460 0
-459 -460 0
-461 -462 0
-461 -463 0
-461 -464 0
-462 -463 0
-462 -464 0
-463 -464 0
-465 -466 0
-465 -467 0
-465 -468 0
-466 -467 0
-466 -468 0
-467 -468 0
-469 -470 0
-469 -471 0
-469 -472 0
-470 -471 0
-470 -472 0
-471 -472 0
-473 -474 0
-473 -475 0
-473 -476 0
-474 -475 0
-474 -476 0
-475 -476 0
-477 -478 0
-477 -479 0
-477 -480 0
-478 -479 0
-478 -480 0
-479 -480 0
-481 -482 0
-481 -483 0
-481 -484 0
-482 -483 0
-482 -484 0
-483 -484 0
-485 -486 0
-485 -487 0
-485 -488 0
-486 -487 0
-486 -488 0
-487 -488 0
-489 -490 0
-489 -491 0
-489 -492 0
-490 -491 0
-490 -492 0
-491 -492 0
-493 -494 0
-493 -495 0
-493 -496 0
-494 -495 0
-494 -496 0
-495 -496 0
-497 -498 0
-497 -499 0
-497 -500 0
-498 -499 0
-498 -500 0
-499 -500 0
-501 -502 0
-501 -503 0
-501 -504 0
-502 -503 0
-502 -504 0
-503 -504 0
-505 -506 0
-505 -507 0
-505 -508 0
-506 -507 0
-506 -508 0
-507 -508 0
-509 -510 0
-509 -511 0
-509 -512 0
-510 -511 0
-510 -512 0
-511 -512 0
-513 -514 0
-513 -515 0
-513 -516 0
-514 -515 0
-514 -516 0
-515 -516 0
-517 -518 0
-517 -519 0
-517 -520 0
-518 -519 0
-518 -520 0
-519 -520 0
-521 -522 0
-521 -523 0
-521 -524 0
-522 -523 0
-522 -524 0
-523 -524 0
-525 -526 0
-525 -527 0
-525 -528 0
-526 -527 0
-526 -528 0
-527 -528 0
-529 -530 0
-529 -531 0
-529 -532 0
-530 -531 0
-530 -532 0
-531 -532 0
-533 -534 0
-533 -535 0
-533 -536 0
-534 -535 0
-534 -536 0
-535 -536 0
-537 -538 0
-537 -539 0
-537 -540 0
-538 -539 0
-538 -540 0
-539 -540 0
-541 -542 0
-541 -543 0
-541 -544 0
-542 -543 0
-542 -544 0
-543 -544 0
-545 -546 0
-545 -547 0
-545 -548 0
-546 -547 0
-546 -548 0
-547 -548 0
-549 -550 0
-549 -551 0
-549 -552 0
-550 -551 0
-550 -552 0
-551 -552 0
-553 -554 0
-553 -555 0
-553 -556 0
-554 -555 0
-554 -556 0
-555 -556 0
-557 -558 0
-557 -559 0
-557 -560 0
-558 -559 0
-558 -560 0
-559 -560 0
-561 -562 0
-561 -563 0
-561 -564 0
-562 -563 0
-562 -564 0
-563 -564 0
-565 -566 0
-565 -567 0
-565 -568 0
-566 -567 0
-566 -568 0
-567 -568 0
-569 -570 0
-569 -571 0
-569 -572 0
-570 -571 0
-570 -572 0
-571 -572 0
-573 -574 0
-573 -575 0
-573 -576 0
-574 -575 0
-574 -576 0
-575 -576 0
-577 -578 0
-577 -579 0
-577 -580 0
-578 -579 0
-578 -580 0
-579 -580 0
-581 -582 0
-581 -583 0
-581 -584 0
-582 -583 0
-582 -584 0
-583 -584 0
-585 -586 0
-585 -587 0
-585 -588 0
-586 -587 0
-586 -588 0
-587 -588 0
-589 -590 0
-589 -591 0
-589 -592 0
-590 -591 0
-590 -592 0
-591 -592 0
-593 -594 0
-593 -595 0
-593 -596 0
-594 -595 0
-594 -596 0
-595 -596 0
-597 -598 0
-597 -599 0
-597 -600 0
-598 -599 0
-598 -600 0
-599 -600 0
-601 -602 0
-601 -603 0
-601 -604 0
-602 -603 0
-602 -604 0
-603 -604 0
-605 -606 0
-605 -607 0
-605 -608 0
-606 -607 0
-606 -608 0
-607 -608 0
-609 -610 0
-609 -611 0
-609 -612 0
-610 -611 0
-610 -612 0
-611 -612 0
-613 -614 0
-613 -615 0
-613 -616 0
-614 -615 0
-614 -616 0
-615 -616 0
-617 -618 0
-617 -619 0
-617 -620 0
-618 -619 0
-618 -620 0
-619 -620 0
-621 -622 0
-621 -623 0
-621 -624 0
-622 -623 0
-622 -624 0
-623 -624 0
-625 -626 0
-625 -627 0
-625 -628 0
-626 -627 0
-626 -628 0
-627 -628 0
-629 -630 0
-629 -631 0
-629 -632 0
-630 -631 0
-630 -632 0
-631 -632 0
-633 -634 0
-633 -635 0
-633 -636 0
-634 -635 0
-634 -636 0
-635 -636 0
-637 -638 0
-637 -639 0
-637 -640 0
-638 -639 0
-638 -640 0
-639 -640 0
-641 -642 0
-641 -643 0
-641 -644 0
-642 -643 0
-642 -644 0
-643 -644 0
-645 -646 0
-645 -647 0
-645 -648 0
-646 -647 0
-646 -648 0
-647 -648 0
-649 -650 0
-649 -651 0
-649 -652 0
-650 -651 0
-650 -652 0
-651 -652 0
-653 -654 0
-653 -655 0
-653 -656 0
-654 -655 0
-654 -656 0
-655 -656 0
-657 -658 0
-657 -659 0
-657 -660 0
-658 -659 0
-658 -660 0
-659 -660 0
-661 -662 0
-661 -663 0
-661 -664 0
-662 -663 0
-662 -664 0
-663 -664 0
-665 -666 0
-665 -667 0
-665 -668 0
-666 -667 0
-666 -668 0
-667 -668 0
-669 -670 0
-669 -671 0
-669 -672 0
-670 -671 0
-670 -672 0
-671 -672 0
-673 -674 0
-673 -675 0
-673 -676 0
-674 -675 0
-674 -676 0
-675 -676 0
-677 -678 0
-677 -679 0
-677 -680 0
-678 -679 0
-678 -680 0
-679 -680 0
-681 -682 0
-681 -683 0
-681 -684 0
-682 -683 0
-682 -684 0
-683 -684 0
-685 -686 0
-685 -687 0
-685 -688 0
-686 -687 0
-686 -688 0
-687 -688 0
-689 -690 0
-689 -691 0
-689 -692 0
-690 -691 0
-690 -692 0
-691 -692 0
-693 -694 0
-693 -695 0
-693 -696 0
-694 -695 0
-694 -696 0
-695 -696 0
-697 -698 0
-697 -699 0
-697 -700 0
-698 -699 0
-698 -700 0
-699 -700 0
-701 -702 0
-701 -703 0
-701 -704 0
-702 -703 0
-702 -704 0
-703 -704 0
-705 -706 0
-705 -707 0
-705 -708 0
-706 -707 0
-706 -708 0
-707 -708 0
-709 -710 0
-709 -711 0
-709 -712 0
-710 -711 0
-710 -712 0
-711 -712 0
-713 -714 0
-713 -715 0
-713 -716 0
-714 -715 0
-714 -716 0
-715 -716 0
-717 -718 0
-717 -719 0
-717 -720 0
-718 -719 0
-718 -720 0
-719 -720 0
-721 -722 0
-721 -723 0
-721 -724 0
-722 -723 0
-722 -724 0
-723 -724 0
-725 -726 0
-725 -727 0
-725 -728 0
-726 -727 0
-726 -728 0
-727 -728 0
-729 -730 0
-729 -731 0
-729 -732 0
-730 -731 0
-730 -732 0
-731 -732 0
-733 -734 0
-733 -735 0
-733 -736 0
-734 -735 0
-734 -736 0
-735 -736 0
-737 -738 0
-737 -739 0
-737 -740 0
-738 -739 0
-738 -740 0
-739 -740 0
-741 -742 0
-741 -743 0
-741 -744 0
-742 -743 0
-742 -744 0
-743 -744 0
-745 -746 0
-745 -747 0
-745 -748 0
-746 -747 0
-746 -748 0
-747 -748 0
-749 -750 0
-749 -751 0
-749 -752 0
-750 -751 0
-750 -752 0
-751 -752 0
-753 -754 0
-753 -755 0
-753 -756 0
-754 -755 0
-754 -756 0
-755 -756 0
-757 -758 0
-757 -759 0
-757 -760 0
-758 -759 0
-758 -760 0
-759 -760 0
-761 -762 0
-761 -763 0
-761 -764 0
-762 -763 0
-762 -764 0
-763 -764 0
-765 -766 0
-765 -767 0
-765 -768 0
-766 -767 0
-766 -768 0
-767 -768 0
-769 -770 0
-769 -771 0
-769 -772 0
-770 -771 0
-770 -772 0
-771 -772 0
-773 -774 0
-773 -775 0
-773 -776 0
-774 -775 0
-774 -776 0
-775 -776 0
-777 -778 0
-777 -779 0
-777 -780 0
-778 -779 0
-778 -780 0
-779 -780 0
-781 -782 0
-781 -783 0
-781 -784 0
-782 -783 0
-782 -784 0
-783 -784 0
-785 -786 0
-785 -787 0
-785 -788 0
-786 -787 0
-786 -788 0
-787 -788 0
-789 -790 0
-789 -791 0
-789 -792 0
-790 -791 0
-790 -792 0
-791 -792 0
-793 -794 0
-793 -795 0
-793 -796 0
-794 -795 0
-794 -796 0
-795 -796 0
-797 -798 0
-797 -799 0
-797 -800 0
-798 -799 0
-798 -800 0
-799 -800 0
-801 -802 0
-801 -803 0
-801 -804 0
-802 -803 0
-802 -804 0
-803 -804 0
-805 -806 0
-805 -807 0
-805 -808 0
-806 -807 0
-806 -808 0
-807 -808 0
-809 -810 0
-809 -811 0
-809 -812 0
-810 -811 0
-810 -812 0
-811 -812 0
-813 -814 0
-813 -815 0
-813 -816 0
-814 -815 0
-814 -816 0
-815 -816 0
-817 -818 0
-817 -819 0
-817 -820 0
-818 -819 0
-818 -820 0
-819 -820 0
-821 -822 0
-821 -823 0
-821 -824 0
-822 -823 0
-822 -824 0
-823 -824 0
-825 -826 0
-825 -827 0
-825 -828 0
-826 -827 0
-826 -828 0
-827 -828 0
-829 -830 0
-829 -831 0
-829 -832 0
-830 -831 0
-830 -832 0
-831 -832 0
-833 -834 0
-833 -835 0
-833 -836 0
-834 -835 0
-834 -836 0
-835 -836 0
-837 -838 0
-837 -839 0
-837 -840 0
-838 -839 0
-838 -840 0
-839 -840 0
-841 -842 0
-841 -843 0
-841 -844 0
-842 -843 0
-842 -844 0
-843 -844 0
-845 -846 0
-845 -847 0
-845 -848 0
-846 -847 0
-846 -848 0
-847 -848 0
-849 -850 0
-849 -851 0
-849 -852 0
-850 -851 0
-850 -852 0
-851 -852 0
-853 -854 0
-853 -855 0
-853 -856 0
-854 -855 0
-854 -856 0
-855 -856 0
-857 -858 0
-857 -859 0
-857 -860 0
-858 -859 0
-858 -860 0
-859 -860 0
-861 -862 0
-861 -863 0
-861 -864 0
-862 -863 0
-862 -864 0
-863 -864 0
-865 -866 0
-865 -867 0
-865 -868 0
-866 -867 0
-866 -868 0
-867 -868 0
-869 -870 0
-869 -871 0
-869 -872 0
-870 -871 0
-870 -872 0
-871 -872 0
-873 -874 0
-873 -875 0
-873 -876 0
-874 -875 0
-874 -876 0
-875 -876 0
-877 -878 0
-877 -879 0
-877 -880 0
-878 -879 0
-878 -880 0
-879 -880 0
-881 -882 0
-881 -883 0
-881 -884 0
-882 -883 0
-882 -884 0
-883 -884 0
-885 -886 0
-885 -887 0
-885 -888 0
-886 -887 0
-886 -888 0
-887 -888 0
-889 -890 0
-889 -891 0
-889 -892 0
-890 -891 0
-890 -892 0
-891 -892 0
-893 -894 0
-893 -895 0
-893 -896 0
-894 -895 0
-894 -896 0
-895 -896 0
-897 -898 0
-897 -899 0
-897 -900 0
-898 -899 0
-898 -900 0
-899 -900 0
-901 -902 0
-901 -903 0
-901 -904 0
-902 -903 0
-902 -904 0
-903 -904 0
-905 -906 0
-905 -907 0
-905 -908 0
-906 -907 0
-906 -908 0
-907 -908 0
-909 -910 0
-909 -911 0
-909 -912 0
-910 -911 0
-910 -912 0
-911 -912 0
-913 -914 0
-913 -915 0
-913 -916 0
-914 -915 0
-914 -916 0
-915 -916 0
-917 -918 0
-917 -919 0
-917 -920 0
-918 -919 0
-918 -920 0
-919 -920 0
-921 -922 0
-921 -923 0
-921 -924 0
-922 -923 0
-922 -924 0
-923 -924 0
-925 -926 0
-925 -927 0
-925 -928 0
-926 -927 0
-926 -928 0
-927 -928 0
-929 -930 0
-929 -931 0
-929 -932 0
-930 -931 0
-930 -932 0
-931 -932 0
-933 -934 0
-933 -935 0
-933 -936 0
-934 -935 0
-934 -936 0
-935 -936 0
-937 -938 0
-937 -939 0
-937 -940 0
-938 -939 0
-938 -940 0
-939 -940 0
-941 -942 0
-941 -943 0
-941 -944 0
-942 -943 0
-942 -944 0
-943 -944 0
-945 -946 0
-945 -947 0
-945 -948 0
-946 -947 0
-946 -948 0
-947 -948 0
-949 -950 0
-949 -951 0
-949 -952 0
-950 -951 0
-950 -952 0
-951 -952 0
-953 -954 0
-953 -955 0
-953 -956 0
-954 -955 0
-954 -956 0
-955 -956 0
-957 -958 0
-957 -959 0
-957 -960 0
-958 -959 0
-958 -960 0
-959 -960 0
-961 -962 0
-961 -963 0
-961 -964 0
-962 -963 0
-962 -964 0
-963 -964 0
-965 -966 0
-965 -967 0
-965 -968 0
-966 -967 0
-966 -968 0
-967 -968 0
-969 -970 0
-969 -971 0
-969 -972 0
-970 -971 0
-970 -972 0
-971 -972 0
-973 -974 0
-973 -975 0
-973 -976 0
-974 -975 0
-974 -976 0
-975 -976 0
-977 -978 0
-977 -979 0
-977 -980 0
-978 -979 0
-978 -980 0
-979 -980 0
-981 -982 0
-981 -983 0
-981 -984 0
-982 -983 0
-982 -984 0
-983 -984 0
-985 -986 0
-985 -987 0
-985 -988 0
-986 -987 0
-986 -988 0
-987 -988 0
-989 -990 0
-989 -991 0
-989 -992 0
-990 -991 0
-990 -992 0
-991 -992 0
-993 -994 0
-993 -995 0
-993 -996 0
-994 -995 0
-994 -996 0
-995 -996 0
-997 -998 0
-997 -999 0
-997 -1000 0
-998 -999 0
-998 -1000 0
-999 -1000 0
-1001 -1002 0
-1001 -1003 0
-1001 -1004 0
-1002 -1003 0
-1002 -1004 0
-1003 -1004 0
-1005 -1006 0
-1005 -1007 0
-1005 -1008 0
-1006 -1007 0
-1006 -1008 0
-1007 -1008 0
-1009 -1010 0
-1009 -1011 0
-1009 -1012 0
-1010 -1011 0
-1010 -1012 0
-1011 -1012 0
-1013 -1014 0
-1013 -1015 0
-1013 -1016 0
-1014 -1015 0
-1014 -1016 0
-1015 -1016 0
-1017 -1018 0
-1017 -1019 0
-1017 -1020 0
-1018 -1019 0
-1018 -1020 0
-1019 -1020 0
-1021 -1022 0
-1021 -1023 0
-1021 -1024 0
-1022 -1023 0
-1022 -1024 0
-1023 -1024 0
-1025 -1026 0
-1025 -1027 0
-1025 -1028 0
-1026 -1027 0
-1026 -1028 0
-1027 -1028 0
-1029 -1030 0
-1029 -1031 0
-1029 -1032 0
-1030 -1031 0
-1030 -1032 0
-1031 -1032 0
-1033 -1034 0
-1033 -1035 0
-1033 -1036 0
-1034 -1035 0
-1034 -1036 0
-1035 -1036 0
-1037 -1038 0
-1037 -1039 0
-1037 -1040 0
-1038 -1039 0
-1038 -1040 0
-1039 -1040 0
-1041 -1042 0
-1041 -1043 0
-1041 -1044 0
-1042 -1043 0
-1042 -1044 0
-1043 -1044 0
-1045 -1046 0
-1045 -1047 0
-1045 -1048 0
-1046 -1047 0
-1046 -1048 0
-1047 -1048 0
-1049 -1050 0
-1049 -1051 0
-1049 -1052 0
-1050 -1051 0
-1050 -1052 0
-1051 -1052 0
-1053 -1054 0
-1053 -1055 0
-1053 -1056 0
-1054 -1055 0
-1054 -1056 0
-1055 -1056 0
-1057 -1058 0
-1057 -1059 0
-1057 -1060 0
-1058 -1059 0
-1058 -1060 0
-1059 -1060 0
-1061 -1062 0
-1061 -1063 0
-1061 -1064 0
-1062 -1063 0
-1062 -1064 0
-1063 -1064 0
-1065 -1066 0
-1065 -1067 0
-1065 -1068 0
-1066 -1067 0
-1066 -1068 0
-1067 -1068 0
-1069 -1070 0
-1069 -1071 0
-1069 -1072 0
-1070 -1071 0
-1070 -1072 0
-1071 -1072 0
-1073 -1074 0
-1073 -1075 0
-1073 -1076 0
-1074 -1075 0
-1074 -1076 0
-1075 -1076 0
-1077 -1078 0
-1077 -1079 0
-1077 -1080 0
-1078 -1079 0
-1078 -1080 0
-1079 -1080 0
-1081 -1082 0
-1081 -1083 0
-1081 -1084 0
-1082 -1083 0
-1082 -1084 0
-1083 -1084 0
-1085 -1086 0
-1085 -1087 0
-1085 -1088 0
-1086 -1087 0
-1086 -1088 0
-1087 -1088 0
-1089 -1090 0
-1089 -1091 0
-1089 -1092 0
-1090 -1091 0
-1090 -1092 0
-1091 -1092 0
-1093 -1094 0
-1093 -1095 0
-1093 -1096 0
-1094 -1095 0
-1094 -1096 0
-1095 -1096 0
-1097 -1098 0
-1097 -1099 0
-1097 -1100 0
-1098 -1099 0
-1098 -1100 0
-1099 -1100 0
-1101 -1102 0
-1101 -1103 0
-1101 -1104 0
-1102 -1103 0
-1102 -1104 0
-1103 -1104 0
-1105 -1106 0
-1105 -1107 0
-1105 -1108 0
-1106 -1107 0
-1106 -1108 0
-1107 -1108 0
-1109 -1110 0
-1109 -1111 0
-1109 -1112 0
-1110 -1111 0
-1110 -1112 0
-1111 -1112 0
-1113 -1114 0
-1113 -1115 0
-1113 -1116 0
-1114 -1115 0
-1114 -1116 0
-1115 -1116 0
-1117 -1118 0
-1117 -1119 0
-1117 -1120 0
-1118 -1119 0
-1118 -1120 0
-1119 -1120 0
-1121 -1122 0
-1121 -1123 0
-1121 -1124 0
-1122 -1123 0
-1122 -1124 0
-1123 -1124 0
-1125 -1126 0
-1125 -1127 0
-1125 -1128 0
-1126 -1127 0
-1126 -1128 0
-1127 -1128 0
-1129 -1130 0
-1129 -1131 0
-1129 -1132 0
-1130 -1131 0
-1130 -1132 0
-1131 -1132 0
-1133 -1134 0
-1133 -1135 0
-1133 -1136 0
-1134 -1135 0
-1134 -1136 0
-1135 -1136 0
-1137 -1138 0
-1137 -1139 0
-1137 -1140 0
-1138 -1139 0
-1138 -1140 0
-1139 -1140 0
-1141 -1142 0
-1141 -1143 0
-1141 -1144 0
-1142 -1143 0
-1142 -1144 0
-1143 -1144 0
-1145 -1146 0
-1145 -1147 0
-1145 -1148 0
-1146 -1147 0
-1146 -1148 0
-1147 -1148 0
-1149 -1150 0
-1149 -1151 0
-1149 -1152 0
-1150 -1151 0
-1150 -1152 0
-1151 -1152 0
-1153 -1154 0
-1153 -1155 0
-1153 -1156 0
-1154 -1155 0
-1154 -1156 0
-1155 -1156 0
-1157 -1158 0
-1157 -1159 0
-1157 -1160 0
-1158 -1159 0
-1158 -1160 0
-1159 -1160 0
-1161 -1162 0
-1161 -1163 0
-1161 -1164 0
-1162 -1163 0
-1162 -1164 0
-1163 -1164 0
-1165 -1166 0
-1165 -1167 0
-1165 -1168 0
-1166 -1167 0
-1166 -1168 0
-1167 -1168 0
-1169 -1170 0
-1169 -1171 0
-1169 -1172 0
-1170 -1171 0
-1170 -1172 0
-1171 -1172 0
-1173 -1174 0
-1173 -1175 0
-1173 -1176 0
-1174 -1175 0
-1174 -1176 0
-1175 -1176 0
-1177 -1178 0
-1177 -1179 0
-1177 -1180 0
-1178 -1179 0
-1178 -1180 0
-1179 -1180 0
-1181 -1182 0
-1181 -1183 0
-1181 -1184 0
-1182 -1183 0
-1182 -1184 0
-1183 -1184 0
-1185 -1186 0
-1185 -1187 0
-1185 -1188 0
-1186 -1187 0
-1186 -1188 0
-1187 -1188 0
-1189 -1190 0
-1189 -1191 0
-1189 -1192 0
-1190 -1191 0
-1190 -1192 0
-1191 -1192 0
-1193 -1194 0
-1193 -1195 0
-1193 -1196 0
-1194 -1195 0
-1194 -1196 0
-1195 -1196 0
-1197 -1198 0
-1197 -1199 0
-1197 -1200 0
-1198 -1199 0
-1198 -1200 0
-1199 -1200 0
-1201 -1202 0
-1201 -1203 0
-1201 -1204 0
-1202 -1203 0
-1202 -1204 0
-1203 -1204 0
-1205 -1206 0
-1205 -1207 0
-1205 -1208 0
-1206 -1207 0
-1206 -1208 0
-1207 -1208 0
-1209 -1210 0
-1209 -1211 0
-1209 -1212 0
-1210 -1211 0
-1210 -1212 0
-1211 -1212 0
-1213 -1214 0
-1213 -1215 0
-1213 -1216 0
-1214 -1215 0
-1214 -1216 0
-1215 -1216 0
-1217 -1218 0
-1217 -1219 0
-1217 -1220 0
-1218 -1219 0
-1218 -1220 0
-1219 -1220 0
-1221 -1222 0
-1221 -1223 0
-1221 -1224 0
-1222 -1223 0
-1222 -1224 0
-1223 -1224 0
-1225 -1226 0
-1225 -1227 0
-1225 -1228 0
-1226 -1227 0
-1226 -1228 0
-1227 -1228 0
-1229 -1230 0
-1229 -1231 0
-1229 -1232 0
-1230 -1231 0
-1230 -1232 0
-1231 -1232 0
-1233 -1234 0
-1233 -1235 0
-1233 -1236 0
-1234 -1235 0
-1234 -1236 0
-1235 -1236 0
-1237 -1238 0
-1237 -1239 0
-1237 -1240 0
-1238 -1239 0
-1238 -1240 0
-1239 -1240 0
-1241 -1242 0
-1241 -1243 0
-1241 -1244 0
-1242 -1243 0
-1242 -1244 0
-1243 -1244 0
-1245 -1246 0
-1245 -1247 0
-1245 -1248 0
-1246 -1247 0
-1246 -1248 0
-1247 -1248 0
-1249 -1250 0
-1249 -1251 0
-1249 -1252 0
-1250 -1251 0
-1250 -1252 0
-1251 -1252 0
-1253 -1254 0
-1253 -1255 0
-1253 -1256 0
-1254 -1255 0
-1254 -1256 0
-1255 -1256 0
-1257 -1258 0
-1257 -1259 0
-1257 -1260 0
-1258 -1259 0
-1258 -1260 0
-1259 -1260 0
-1261 -1262 0
-1261 -1263 0
-1261 -1264 0
-1262 -1263 0
-1262 -1264 0
-1263 -1264 0
-1265 -1266 0
-1265 -1267 0
-1265 -1268 0
-1266 -1267 0
-1266 -1268 0
-1267 -1268 0
-1269 -1270 0
-1269 -1271 0
-1269 -1272 0
-1270 -1271 0
-1270 -1272 0
-1271 -1272 0
-1273 -1274 0
-1273 -1275 0
-1273 -1276 0
-1274 -1275 0
-1274 -1276 0
-1275 -1276 0
-1277 -1278 0
-1277 -1279 0
-1277 -1280 0
-1278 -1279 0
-1278 -1280 0
-1279 -1280 0
-1281 -1282 0
-1281 -1283 0
-1281 -1284 0
-1282 -1283 0
-1282 -1284 0
-1283 -1284 0
-1285 -1286 0
-1285 -1287 0
-1285 -1288 0
-1286 -1287 0
-1286 -1288 0
-1287 -1288 0
-1289 -1290 0
-1289 -1291 0
-1289 -1292 0
-1290 -1291 0
-1290 -1292 0
-1291 -1292 0
-1293 -1294 0
-1293 -1295 0
-1293 -1296 0
-1294 -1295 0
-1294 -1296 0
-1295 -1296 0
-1297 -1298 0
-1297 -1299 0
-1297 -1300 0
-1298 -1299 0
-1298 -1300 0
-1299 -1300 0
-1301 -1302 0
-1301 -1303 0
-1301 -1304 0
-1302 -1303 0
-1302 -1304 0
-1303 -1304 0
-1305 -1306 0
-1305 -1307 0
-1305 -1308 0
-1306 -1307 0
-1306 -1308 0
-1307 -1308 0
-1309 -1310 0
-1309 -1311 0
-1309 -1312 0
-1310 -1311 0
-1310 -1312 0
-1311 -1312 0
-1313 -1314 0
-1313 -1315 0
-1313 -1316 0
-1314 -1315 0
-1314 -1316 0
-1315 -1316 0
-1317 -1318 0
-1317 -1319 0
-1317 -1320 0
-1318 -1319 0
-1318 -1320 0
-1319 -1320 0
-1321 -1322 0
-1321 -1323 0
-1321 -1324 0
-1322 -1323 0
-1322 -1324 0
-1323 -1324 0
-1325 -1326 0
-1325 -1327 0
-1325 -1328 0
-1326 -1327 0
-1326 -1328 0
-1327 -1328 0
-1329 -1330 0
-1329 -1331 0
-1329 -1332 0
-1330 -1331 0
-1330 -1332 0
-1331 -1332 0
-1333 -1334 0
-1333 -1335 0
-1333 -1336 0
-1334 -1335 0
-1334 -1336 0
-1335 -1336 0
-1337 -1338 0
-1337 -1339 0
-1337 -1340 0
-1338 -1339 0
-1338 -1340 0
-1339 -1340 0
-1341 -1342 0
-1341 -1343 0
-1341 -1344 0
-1342 -1343 0
-1342 -1344 0
-1343 -1344 0
-1345 -1346 0
-1345 -1347 0
-1345 -1348 0
-1346 -1347 0
-1346 -1348 0
-1347 -1348 0
-1349 -1350 0
-1349 -1351 0
-1349 -1352 0
-1350 -1351 0
-1350 -1352 0
-1351 -1352 0
-1353 -1354 0
-1353 -1355 0
-1353 -1356 0
-1354 -1355 0
-1354 -1356 0
-1355 -1356 0
-1357 -1358 0
-1357 -1359 0
-1357 -1360 0
-1358 -1359 0
-1358 -1360 0
-1359 -1360 0
-1361 -1362 0
-1361 -1363 0
-1361 -1364 0
-1362 -1363 0
-1362 -1364 0
-1363 -1364 0
-1365 -1366 0
-1365 -1367 0
-1365 -1368 0
-1366 -1367 0
-1366 -1368 0
-1367 -1368 0
-1369 -1370 0
-1369 -1371 0
-1369 -1372 0
-1370 -1371 0
-1370 -1372 0
-1371 -1372 0
-1373 -1374 0
-1373 -1375 0
-1373 -1376 0
-1374 -1375 0
-1374 -1376 0
-1375 -1376 0
-1377 -1378 0
-1377 -1379 0
-1377 -1380 0
-1378 -1379 0
-1378 -1380 0
-1379 -1380 0
-1381 -1382 0
-1381 -1383 0
-1381 -1384 0
-1382 -1383 0
-1382 -1384 0
-1383 -1384 0
-1385 -1386 0
-1385 -1387 0
-1385 -1388 0
-1386 -1387 0
-1386 -1388 0
-1387 -1388 0
-1389 -1390 0
-1389 -1391 0
-1389 -1392 0
-1390 -1391 0
-1390 -1392 0
-1391 -1392 0
-1393 -1394 0
-1393 -1395 0
-1393 -1396 0
-1394 -1395 0
-1394 -1396 0
-1395 -1396 0
-1397 -1398 0
-1397 -1399 0
-1397 -1400 0
-1398 -1399 0
-1398 -1400 0
-1399 -1400 0
-1401 -1402 0
-1401 -1403 0
-1401 -1404 0
-1402 -1403 0
-1402 -1404 0
-1403 -1404 0
-1405 -1406 0
-1405 -1407 0
-1405 -1408 0
-1406 -1407 0
-1406 -1408 0
-1407 -1408 0
-1409 -1410 0
-1409 -1411 0
-1409 -1412 0
-1410 -1411 0
-1410 -1412 0
-1411 -1412 0
-1413 -1414 0
-1413 -1415 0
-1413 -1416 0
-1414 -1415 0
-1414 -1416 0
-1415 -1416 0
-1417 -1418 0
-1417 -1419 0
-1417 -1420 0
-1418 -1419 0
-1418 -1420 0
-1419 -1420 0
-1421 -1422 0
-1421 -1423 0
-1421 -1424 0
-1422 -1423 0
-1422 -1424 0
-1423 -1424 0
-1425 -1426 0
-1425 -1427 0
-1425 -1428 0
-1426 -1427 0
-1426 -1428 0
-1427 -1428 0
-1429 -1430 0
-1429 -1431 0
-1429 -1432 0
-1430 -1431 0
-1430 -1432 0
-1431 -1432 0
-1433 -1434 0
-1433 -1435 0
-1433 -1436 0
-1434 -1435 0
-1434 -1436 0
-1435 -1436 0
-1437 -1438 0
-1437 -1439 0
-1437 -1440 0
-1438 -1439 0
-1438 -1440 0
-1439 -1440 0
-1441 -1442 0
-1441 -1443 0
-1441 -1444 0
-1442 -1443 0
-1442 -1444 0
-1443 -1444 0
-1445 -1446 0
-1445 -1447 0
-1445 -1448 0
-1446 -1447 0
-1446 -1448 0
-1447 -1448 0
-1449 -1450 0
-1449 -1451 0
-1449 -1452 0
-1450 -1451 0
-1450 -1452 0
-1451 -1452 0
-1453 -1454 0
-1453 -1455 0
-1453 -1456 0
-1454 -1455 0
-1454 -1456 0
-1455 -1456 0
-1457 -1458 0
-1457 -1459 0
-1457 -1460 0
-1458 -1459 0
-1458 -1460 0
-1459 -1460 0
-1461 -1462 0
-1461 -1463 0
-1461 -1464 0
-1462 -1463 0
-1462 -1464 0
-1463 -1464 0
-1465 -1466 0
-1465 -1467 0
-1465 -1468 0
-1466 -1467 0
-1466 -1468 0
-1467 -1468 0
-1469 -1470 0
-1469 -1471 0
-1469 -1472 0
-1470 -1471 0
-1470 -1472 0
-1471 -1472 0
-1473 -1474 0
-1473 -1475 0
-1473 -1476 0
-1474 -1475 0
-1474 -1476 0
-1475 -1476 0
-1477 -1478 0
-1477 -1479 0
-1477 -1480 0
-1478 -1479 0
-1478 -1480 0
-1479 -1480 0
-1481 -1482 0
-1481 -1483 0
-1481 -1484 0
-1482 -1483 0
-1482 -1484 0
-1483 -1484 0
-1485 -1486 0
-1485 -1487 0
-1485 -1488 0
-1486 -1487 0
-1486 -1488 0
-1487 -1488 0
-1489 -1490 0
-1489 -1491 0
-1489 -1492 0
-1490 -1491 0
-1490 -1492 0
-1491 -1492 0
-1493 -1494 0
-1493 -1495 0
-1493 -1496 0
-1494 -1495 0
-1494 -1496 0
-1495 -1496 0
-1497 -1498 0
-1497 -1499 0
-1497 -1500 0
-1498 -1499 0
-1498 -1500 0
-1499 -1500 0
-1501 -1502 0
-1501 -1503 0
-1501 -1504 0
-1502 -1503 0
-1502 -1504 0
-1503 -1504 0
-1505 -1506 0
-1505 -1507 0
-1505 -1508 0
-1506 -1507 0
-1506 -1508 0
-1507 -1508 0
-1509 -1510 0
-1509 -1511 0
-1509 -1512 0
-1510 -1511 0
-1510 -1512 0
-1511 -1512 0
-1513 -1514 0
-1513 -1515 0
-1513 -1516 0
-1514 -1515 0
-1514 -1516 0
-1515 -1516 0
-1517 -1518 0
-1517 -1519 0
-1517 -1520 0
-1518 -1519 0
-1518 -1520 0
-1519 -1520 0
-1521 -1522 0
-1521 -1523 0
-1521 -1524 0
-1522 -1523 0
-1522 -1524 0
-1523 -1524 0
-1525 -1526 0
-1525 -1527 0
-1525 -1528 0
-1526 -1527 0
-1526 -1528 0
-1527 -1528 0
-1529 -1530 0
-1529 -1531 0
-1529 -1532 0
-1530 -1531 0
-1530 -1532 0
-1531 -1532 0
-1533 -1534 0
-1533 -1535 0
-1533 -1536 0
-1534 -1535 0
-1534 -1536 0
-1535 -1536 0
-1537 -1538 0
-1537 -1539 0
-1537 -1540 0
-1538 -1539 0
-1538 -1540 0
-1539 -1540 0
-1541 -1542 0
-1541 -1543 0
-1541 -1544 0
-1542 -1543 0
-1542 -1544 0
-1543 -1544 0
-1545 -1546 0
-1545 -1547 0
-1545 -1548 0
-1546 -1547 0
-1546 -1548 0
-1547 -1548 0
-1549 -1550 0
-1549 -1551 0
-1549 -1552 0
-1550 -1551 0
-1550 -1552 0
-1551 -1552 0
-1553 -1554 0
-1553 -1555 0
-1553 -1556 0
-1554 -1555 0
-1554 -1556 0
-1555 -1556 0
-1557 -1558 0
-1557 -1559 0
-1557 -1560 0
-1558 -1559 0
-1558 -1560 0
-1559 -1560 0
-1561 -1562 0
-1561 -1563 0
-1561 -1564 0
-1562 -1563 0
-1562 -1564 0
-1563 -1564 0
-1565 -1566 0
-1565 -1567 0
-1565 -1568 0
-1566 -1567 0
-1566 -1568 0
-1567 -1568 0
-1569 -1570 0
-1569 -1571 0
-1569 -1572 0
-1570 -1571 0
-1570 -1572 0
-1571 -1572 0
-1573 -1574 0
-1573 -1575 0
-1573 -1576 0
-1574 -1575 0
-1574 -1576 0
-1575 -1576 0
-1577 -1578 0
-1577 -1579 0
-1577 -1580 0
-1578 -1579 0
-1578 -1580 0
-1579 -1580 0
-1581 -1582 0
-1581 -1583 0
-1581 -1584 0
-1582 -1583 0
-1582 -1584 0
-1583 -1584 0
-1585 -1586 0
-1585 -1587 0
-1585 -1588 0
-1586 -1587 0
-1586 -1588 0
-1587 -1588 0
-1589 -1590 0
-1589 -1591 0
-1589 -1592 0
-1590 -1591 0
-1590 -1592 0
-1591 -1592 0
-1593 -1594 0
-1593 -1595 0
-1593 -1596 0
-1594 -1595 0
-1594 -1596 0
-1595 -1596 0
-1597 -1598 0
-1597 -1599 0
-1597 -1600 0
-1598 -1599 0
-1598 -1600 0
-1599 -1600 0
-1601 -1602 0
-1601 -1603 0
-1601 -1604 0
-1602 -1603 0
-1602 -1604 0
-1603 -1604 0
-1605 -1606 0
-1605 -1607 0
-1605 -1608 0
-1606 -1607 0
-1606 -1608 0
-1607 -1608 0
-1609 -1610 0
-1609 -1611 0
-1609 -1612 0
-1610 -1611 0
-1610 -1612 0
-1611 -1612 0
-1613 -1614 0
-1613 -1615 0
-1613 -1616 0
-1614 -1615 0
-1614 -1616 0
-1615 -1616 0
-1617 -1618 0
-1617 -1619 0
-1617 -1620 0
-1618 -1619 0
-1618 -1620 0
-1619 -1620 0
-1621 -1622 0
-1621 -1623 0
-1621 -1624 0
-1622 -1623 0
-1622 -1624 0
-1623 -1624 0
-1625 -1626 0
-1625 -1627 0
-1625 -1628 0
-1626 -1627 0
-1626 -1628 0
-1627 -1628 0
-1629 -1630 0
-1629 -1631 0
-1629 -1632 0
-1630 -1631 0
-1630 -1632 0
-1631 -1632 0
-1633 -1634 0
-1633 -1635 0
-1633 -1636 0
-1634 -1635 0
-1634 -1636 0
-1635 -1636 0
-1637 -1638 0
-1637 -1639 0
-1637 -1640 0
-1638 -1639 0
-1638 -1640 0
-1639 -1640 0
-1641 -1642 0
-1641 -1643 0
-1641 -1644 0
-1642 -1643 0
-1642 -1644 0
-1643 -1644 0
-1645 -1646 0
-1645 -1647 0
-1645 -1648 0
-1646 -1647 0
-1646 -1648 0
-1647 -1648 0
-1649 -1650 0
-1649 -1651 0
-1649 -1652 0
-1650 -1651 0
-1650 -1652 0
-1651 -1652 0
-1653 -1654 0
-1653 -1655 0
-1653 -1656 0
-1654 -1655 0
-1654 -1656 0
-1655 -1656 0
-1657 -1658 0
-1657 -1659 0
-1657 -1660 0
-1658 -1659 0
-1658 -1660 0
-1659 -1660 0
-1661 -1662 0
-1661 -1663 0
-1661 -1664 0
-1662 -1663 0
-1662 -1664 0
-1663 -1664 0
-1665 -1666 0
-1665 -1667 0
-1665 -1668 0
-1666 -1667 0
-1666 -1668 0
-1667 -1668 0
-1669 -1670 0
-1669 -1671 0
-1669 -1672 0
-1670 -1671 0
-1670 -1672 0
-1671 -1672 0
-1673 -1674 0
-1673 -1675 0
-1673 -1676 0
-1674 -1675 0
-1674 -1676 0
-1675 -1676 0
-1677 -1678 0
-1677 -1679 0
-1677 -1680 0
-1678 -1679 0
-1678 -1680 0
-1679 -1680 0
-1681 -1682 0
-1681 -1683 0
-1681 -1684 0
-1682 -1683 0
-1682 -1684 0
-1683 -1684 0
-1685 -1686 0
-1685 -1687 0
-1685 -1688 0
-1686 -1687 0
-1686 -1688 0
-1687 -1688 0
-1689 -1690 0
-1689 -1691 0
-1689 -1692 0
-1690 -1691 0
-1690 -1692 0
-1691 -1692 0
-1693 -1694 0
-1693 -1695 0
-1693 -1696 0
-1694 -1695 0
-1694 -1696 0
-1695 -1696 0
-1697 -1698 0
-1697 -1699 0
-1697 -1700 0
-1698 -1699 0
-1698 -1700 0
-1699 -1700 0
-1701 -1702 0
-1701 -1703 0
-1701 -1704 0
-1702 -1703 0
-1702 -1704 0
-1703 -1704 0
-1705 -1706 0
-1705 -1707 0
-1705 -1708 0
-1706 -1707 0
-1706 -1708 0
-1707 -1708 0
-1709 -1710 0
-1709 -1711 0
-1709 -1712 0
-1710 -1711 0
-1710 -1712 0
-1711 -1712 0
-1713 -1714 0
-1713 -1715 0
-1713 -1716 0
-1714 -1715 0
-1714 -1716 0
-1715 -1716 0
-1717 -1718 0
-1717 -1719 0
-1717 -1720 0
-1718 -1719 0
-1718 -1720 0
-1719 -1720 0
-1721 -1722 0
-1721 -1723 0
-1721 -1724 0
-1722 -1723 0
-1722 -1724 0
-1723 -1724 0
-1725 -1726 0
-1725 -1727 0
-1725 -1728 0
-1726 -1727 0
-1726 -1728 0
-1727 -1728 0
-1729 -1730 0
-1729 -1731 0
-1729 -1732 0
-1730 -1731 0
-1730 -1732 0
-1731 -1732 0
-1733 -1734 0
-1733 -1735 0
-1733 -1736 0
-1734 -1735 0
-1734 -1736 0
-1735 -1736 0
-1737 -1738 0
-1737 -1739 0
-1737 -1740 0
-1738 -1739 0
-1738 -1740 0
-1739 -1740 0
-1741 -1742 0
-1741 -1743 0
-1741 -1744 0
-1742 -1743 0
-1742 -1744 0
-1743 -1744 0
-1745 -1746 0
-1745 -1747 0
-1745 -1748 0
-1746 -1747 0
-1746 -1748 0
-1747 -1748 0
-1749 -1750 0
-1749 -1751 0
-1749 -1752 0
-1750 -1751 0
-1750 -1752 0
-1751 -1752 0
-1753 -1754 0
-1753 -1755 0
-1753 -1756 0
-1754 -1755 0
-1754 -1756 0
-1755 -1756 0
-1757 -1758 0
-1757 -1759 0
-1757 -1760 0
-1758 -1759 0
-1758 -1760 0
-1759 -1760 0
-1761 -1762 0
-1761 -1763 0
-1761 -1764 0
-1762 -1763 0
-1762 -1764 0
-1763 -1764 0
-1765 -1766 0
-1765 -1767 0
-1765 -1768 0
-1766 -1767 0
-1766 -1768 0
-1767 -1768 0
-1769 -1770 0
-1769 -1771 0
-1769 -1772 0
-1770 -1771 0
-1770 -1772 0
-1771 -1772 0
-1773 -1774 0
-1773 -1775 0
-1773 -1776 0
-1774 -1775 0
-1774 -1776 0
-1775 -1776 0
-1777 -1778 0
-1777 -1779 0
-1777 -1780 0
-1778 -1779 0
-1778 -1780 0
-1779 -1780 0
-1781 -1782 0
-1781 -1783 0
-1781 -1784 0
-1782 -1783 0
-1782 -1784 0
-1783 -1784 0
-1785 -1786 0
-1785 -1787 0
-1785 -1788 0
-1786 -1787 0
-1786 -1788 0
-1787 -1788 0
-1789 -1790 0
-1789 -1791 0
-1789 -1792 0
-1790 -1791 0
-1790 -1792 0
-1791 -1792 0
-1793 -1794 0
-1793 -1795 0
-1793 -1796 0
-1794 -1795 0
-1794 -1796 0
-1795 -1796 0
-1797 -1798 0
-1797 -1799 0
-1797 -1800 0
-1798 -1799 0
-1798 -1800 0
-1799 -1800 0
-1801 -1802 0
-1801 -1803 0
-1801 -1804 0
-1802 -1803 0
-1802 -1804 0
-1803 -1804 0
-1805 -1806 0
-1805 -1807 0
-1805 -1808 0
-1806 -1807 0
-1806 -1808 0
-1807 -1808 0
-1809 -1810 0
-1809 -1811 0
-1809 -1812 0
-1810 -1811 0
-1810 -1812 0
-1811 -1812 0
-1813 -1814 0
-1813 -1815 0
-1813 -1816 0
-1814 -1815 0
-1814 -1816 0
-1815 -1816 0
-1817 -1818 0
-1817 -1819 0
-1817 -1820 0
-1818 -1819 0
-1818 -1820 0
-1819 -1820 0
-1821 -1822 0
-1821 -1823 0
-1821 -1824 0
-1822 -1823 0
-1822 -1824 0
-1823 -1824 0
-1825 -1826 0
-1825 -1827 0
-1825 -1828 0
-1826 -1827 0
-1826 -1828 0
-1827 -1828 0
-1829 -1830 0
-1829 -1831 0
-1829 -1832 0
-1830 -1831 0
-1830 -1832 0
-1831 -1832 0
-1833 -1834 0
-1833 -1835 0
-1833 -1836 0
-1834 -1835 0
-1834 -1836 0
-1835 -1836 0
-1837 -1838 0
-1837 -1839 0
-1837 -1840 0
-1838 -1839 0
-1838 -1840 0
-1839 -1840 0
-1841 -1842 0
-1841 -1843 0
-1841 -1844 0
-1842 -1843 0
-1842 -1844 0
-1843 -1844 0
-1845 -1846 0
-1845 -1847 0
-1845 -1848 0
-1846 -1847 0
-1846 -1848 0
-1847 -1848 0
-1849 -1850 0
-1849 -1851 0
-1849 -1852 0
-1850 -1851 0
-1850 -1852 0
-1851 -1852 0
-1853 -1854 0
-1853 -1855 0
-1853 -1856 0
-1854 -1855 0
-1854 -1856 0
-1855 -1856 0
-1857 -1858 0
-1857 -1859 0
-1857 -1860 0
-1858 -1859 0
-1858 -1860 0
-1859 -1860 0
-1861 -1862 0
-1861 -1863 0
-1861 -1864 0
-1862 -1863 0
-1862 -1864 0
-1863 -1864 0
-1865 -1866 0
-1865 -1867 0
-1865 -1868 0
-1866 -1867 0
-1866 -1868 0
-1867 -1868 0
-1869 -1870 0
-1869 -1871 0
-1869 -1872 0
-1870 -1871 0
-1870 -1872 0
-1871 -1872 0
-1873 -1874 0
-1873 -1875 0
-1873 -1876 0
-1874 -1875 0
-1874 -1876 0
-1875 -1876 0
-1877 -1878 0
-1877 -1879 0
-1877 -1880 0
-1878 -1879 0
-1878 -1880 0
-1879 -1880 0
-1881 -1882 0
-1881 -1883 0
-1881 -1884 0
-1882 -1883 0
-1882 -1884 0
-1883 -1884 0
-1885 -1886 0
-1885 -1887 0
-1885 -1888 0
-1886 -1887 0
-1886 -1888 0
-1887 -1888 0
-1889 -1890 0
-1889 -1891 0
-1889 -1892 0
-1890 -1891 0
-1890 -1892 0
-1891 -1892 0
-1893 -1894 0
-1893 -1895 0
-1893 -1896 0
-1894 -1895 0
-1894 -1896 0
-1895 -1896 0
-1897 -1898 0
-1897 -1899 0
-1897 -1900 0
-1898 -1899 0
-1898 -1900 0
-1899 -1900 0
-1901 -1902 0
-1901 -1903 0
-1901 -1904 0
-1902 -1903 0
-1902 -1904 0
-1903 -1904 0
-1905 -1906 0
-1905 -1907 0
-1905 -1908 0
-1906 -1907 0
-1906 -1908 0
-1907 -1908 0
-1909 -1910 0
-1909 -1911 0
-1909 -1912 0
-1910 -1911 0
-1910 -1912 0
-1911 -1912 0
-1913 -1914 0
-1913 -1915 0
-1913 -1916 0
-1914 -1915 0
-1914 -1916 0
-1915 -1916 0
-1917 -1918 0
-1917 -1919 0
-1917 -1920 0
-1918 -1919 0
-1918 -1920 0
-1919 -1920 0
-1921 -1922 0
-1921 -1923 0
-1921 -1924 0
-1922 -1923 0
-1922 -1924 0
-1923 -1924 0
-1925 -1926 0
-1925 -1927 0
-1925 -1928 0
-1926 -1927 0
-1926 -1928 0
-1927 -1928 0
-1929 -1930 0
-1929 -1931 0
-1929 -1932 0
-1930 -1931 0
-1930 -1932 0
-1931 -1932 0
-1933 -1934 0
-1933 -1935 0
-1933 -1936 0
-1934 -1935 0
-1934 -1936 0
-1935 -1936 0
-1937 -1938 0
-1937 -1939 0
-1937 -1940 0
-1938 -1939 0
-1938 -1940 0
-1939 -1940 0
-1941 -1942 0
-1941 -1943 0
-1941 -1944 0
-1942 -1943 0
-1942 -1944 0
-1943 -1944 0
-1945 -1946 0
-1945 -1947 0
-1945 -1948 0
-1946 -1947 0
-1946 -1948 0
-1947 -1948 0
-1949 -1950 0
-1949 -1951 0
-1949 -1952 0
-1950 -1951 0
-1950 -1952 0
-1951 -1952 0
-1953 -1954 0
-1953 -1955 0
-1953 -1956 0
-1954 -1955 0
-1954 -1956 0
-1955 -1956 0
-1957 -1958 0
-1957 -1959 0
-1957 -1960 0
-1958 -1959 0
-1958 -1960 0
-1959 -1960 0
-1961 -1962 0
-1961 -1963 0
-1961 -1964 0
-1962 -1963 0
-1962 -1964 0
-1963 -1964 0
-1965 -1966 0
-1965 -1967 0
-1965 -1968 0
-1966 -1967 0
-1966 -1968 0
-1967 -1968 0
-1969 -1970 0
-1969 -1971 0
-1969 -1972 0
-1970 -1971 0
-1970 -1972 0
-1971 -1972 0
-1973 -1974 0
-1973 -1975 0
-1973 -1976 0
-1974 -1975 0
-1974 -1976 0
-1975 -1976 0
-1977 -1978 0
-1977 -1979 0
-1977 -1980 0
-1978 -1979 0
-1978 -1980 0
-1979 -1980 0
-1981 -1982 0
-1981 -1983 0
-1981 -1984 0
-1982 -1983 0
-1982 -1984 0
-1983 -1984 0
-1985 -1986 0
-1985 -1987 0
-1985 -1988 0
-1986 -1987 0
-1986 -1988 0
-1987 -1988 0
-1989 -1990 0
-1989 -1991 0
-1989 -1992 0
-1990 -1991 0
-1990 -1992 0
-1991 -1992 0
-1993 -1994 0
-1993 -1995 0
-1993 -1996 0
-1994 -1995 0
-1994 -1996 0
-1995 -1996 0
-1997 -1998 0
-1997 -1999 0
-1997 -2000 0
-1998 -1999 0
-1998 -2000 0
-1999 -2000 0
-2001 -2002 0
-2001 -2003 0
-2001 -2004 0
-2002 -2003 0
-2002 -2004 0
-2003 -2004 0
-2005 -2006 0
-2005 -2007 0
-2005 -2008 0
-2006 -2007 0
-2006 -2008 0
-2007 -2008 0
-2009 -2010 0
-2009 -2011 0
-2009 -2012 0
-2010 -2011 0
-2010 -2012 0
-2011 -2012 0
-2013 -2014 0
-2013 -2015 0
-2013 -2016 0
-2014 -2015 0
-2014 -2016 0
-2015 -2016 0
-2017 -2018 0
-2017 -2019 0
-2017 -2020 0
-2018 -2019 0
-2018 -2020 0
-2019 -2020 0
-2021 -2022 0
-2021 -2023 0
-2021 -2024 0
-2022 -2023 0
-2022 -2024 0
-2023 -2024 0
-2025 -2026 0
-2025 -2027 0
-2025 -2028 0
-2026 -2027 0
-2026 -2028 0
-2027 -2028 0
-2029 -2030 0
-2029 -2031 0
-2029 -2032 0
-2030 -2031 0
-2030 -2032 0
-2031 -2032 0
-2033 -2034 0
-2033 -2035 0
-2033 -2036 0
-2034 -2035 0
-2034 -2036 0
-2035 -2036 0
-2037 -2038 0
-2037 -2039 0
-2037 -2040 0
-2038 -2039 0
-2038 -2040 0
-2039 -2040 0
-2041 -2042 0
-2041 -2043 0
-2041 -2044 0
-2042 -2043 0
-2042 -2044 0
-2043 -2044 0
-2045 -2046 0
-2045 -2047 0
-2045 -2048 0
-2046 -2047 0
-2046 -2048 0
-2047 -2048 0
-2049 -2050 0
-2049 -2051 0
-2049 -2052 0
-2050 -2051 0
-2050 -2052 0
-2051 -2052 0
-2053 -2054 0
-2053 -2055 0
-2053 -2056 0
-2054 -2055 0
-2054 -2056 0
-2055 -2056 0
-2057 -2058 0
-2057 -2059 0
-2057 -2060 0
-2058 -2059 0
-2058 -2060 0
-2059 -2060 0
-2061 -2062 0
-2061 -2063 0
-2061 -2064 0
-2062 -2063 0
-2062 -2064 0
-2063 -2064 0
-2065 -2066 0
-2065 -2067 0
-2065 -2068 0
-2066 -2067 0
-2066 -2068 0
-2067 -2068 0
-2069 -2070 0
-2069 -2071 0
-2069 -2072 0
-2070 -2071 0
-2070 -2072 0
-2071 -2072 0
-2073 -2074 0
-2073 -2075 0
-2073 -2076 0
-2074 -2075 0
-2074 -2076 0
-2075 -2076 0
-2077 -2078 0
-2077 -2079 0
-2077 -2080 0
-2078 -2079 0
-2078 -2080 0
-2079 -2080 0
-2081 -2082 0
-2081 -2083 0
-2081 -2084 0
-2082 -2083 0
-2082 -2084 0
-2083 -2084 0
-2085 -2086 0
-2085 -2087 0
-2085 -2088 0
-2086 -2087 0
-2086 -2088 0
-2087 -2088 0
-2089 -2090 0
-2089 -2091 0
-2089 -2092 0
-2090 -2091 0
-2090 -2092 0
-2091 -2092 0
-2093 -2094 0
-2093 -2095 0
-2093 -2096 0
-2094 -2095 0
-2094 -2096 0
-2095 -2096 0
-2097 -2098 0
-2097 -2099 0
-2097 -2100 0
-2098 -2099 0
-2098 -2100 0
-2099 -2100 0
-2101 -2102 0
-2101 -2103 0
-2101 -2104 0
-2102 -2103 0
-2102 -2104 0
-2103 -2104 0
-2105 -2106 0
-2105 -2107 0
-2105 -2108 0
-2106 -2107 0
-2106 -2108 0
-2107 -2108 0
-2109 -2110 0
-2109 -2111 0
-2109 -2112 0
-2110 -2111 0
-2110 -2112 0
-2111 -2112 0
-2113 -2114 0
-2113 -2115 0
-2113 -2116 0
-2114 -2115 0
-2114 -2116 0
-2115 -2116 0
-2117 -2118 0
-2117 -2119 0
-2117 -2120 0
-2118 -2119 0
-2118 -2120 0
-2119 -2120 0
-2121 -2122 0
-2121 -2123 0
-2121 -2124 0
-2122 -2123 0
-2122 -2124 0
-2123 -2124 0
-2125 -2126 0
-2125 -2127 0
-2125 -2128 0
-2126 -2127 0
-2126 -2128 0
-2127 -2128 0
-2129 -2130 0
-2129 -2131 0
-2129 -2132 0
-2130 -2131 0
-2130 -2132 0
-2131 -2132 0
-2133 -2134 0
-2133 -2135 0
-2133 -2136 0
-2134 -2135 0
-2134 -2136 0
-2135 -2136 0
-2137 -2138 0
-2137 -2139 0
-2137 -2140 0
-2138 -2139 0
-2138 -2140 0
-2139 -2140 0
-2141 -2142 0
-2141 -2143 0
-2141 -2144 0
-2142 -2143 0
-2142 -2144 0
-2143 -2144 0
-2145 -2146 0
-2145 -2147 0
-2145 -2148 0
-2146 -2147 0
-2146 -2148 0
-2147 -2148 0
-2149 -2150 0
-2149 -2151 0
-2149 -2152 0
-2150 -2151 0
-2150 -2152 0
-2151 -2152 0
-2153 -2154 0
-2153 -2155 0
-2153 -2156 0
-2154 -2155 0
-2154 -2156 0
-2155 -2156 0
-2157 -2158 0
-2157 -2159 0
-2157 -2160 0
-2158 -2159 0
-2158 -2160 0
-2159 -2160 0
-2161 -2162 0
-2161 -2163 0
-2161 -2164 0
-2162 -2163 0
-2162 -2164 0
-2163 -2164 0
-2165 -2166 0
-2165 -2167 0
-2165 -2168 0
-2166 -2167 0
-2166 -2168 0
-2167 -2168 0
-2169 -2170 0
-2169 -2171 0
-2169 -2172 0
-2170 -2171 0
-2170 -2172 0
-2171 -2172 0
-2173 -2174 0
-2173 -2175 0
-2173 -2176 0
-2174 -2175 0
-2174 -2176 0
-2175 -2176 0
-2177 -2178 0
-2177 -2179 0
-2177 -2180 0
-2178 -2179 0
-2178 -2180 0
-2179 -2180 0
-2181 -2182 0
-2181 -2183 0
-2181 -2184 0
-2182 -2183 0
-2182 -2184 0
-2183 -2184 0
-2185 -2186 0
-2185 -2187 0
-2185 -2188 0
-2186 -2187 0
-2186 -2188 0
-2187 -2188 0
-2189 -2190 0
-2189 -2191 0
-2189 -2192 0
-2190 -2191 0
-2190 -2192 0
-2191 -2192 0
-2193 -2194 0
-2193 -2195 0
-2193 -2196 0
-2194 -2195 0
-2194 -2196 0
-2195 -2196 0
-2197 -2198 0
-2197 -2199 0
-2197 -2200 0
-2198 -2199 0
-2198 -2200 0
-2199 -2200 0
-2201 -2202 0
-2201 -2203 0
-2201 -2204 0
-2202 -2203 0
-2202 -2204 0
-2203 -2204 0
-2205 -2206 0
-2205 -2207 0
-2205 -2208 0
-2206 -2207 0
-2206 -2208 0
-2207 -2208 0
-2209 -2210 0
-2209 -2211 0
-2209 -2212 0
-2210 -2211 0
-2210 -2212 0
-2211 -2212 0
-2213 -2214 0
-2213 -2215 0
-2213 -2216 0
-2214 -2215 0
-2214 -2216 0
-2215 -2216 0
-2217 -2218 0
-2217 -2219 0
-2217 -2220 0
-2218 -2219 0
-2218 -2220 0
-2219 -2220 0
-2221 -2222 0
-2221 -2223 0
-2221 -2224 0
-2222 -2223 0
-2222 -2224 0
-2223 -2224 0
-2225 -2226 0
-2225 -2227 0
-2225 -2228 0
-2226 -2227 0
-2226 -2228 0
-2227 -2228 0
-2229 -2230 0
-2229 -2231 0
-2229 -2232 0
-2230 -2231 0
-2230 -2232 0
-2231 -2232 0
-2233 -2234 0
-2233 -2235 0
-2233 -2236 0
-2234 -2235 0
-2234 -2236 0
-2235 -2236 0
-2237 -2238 0
-2237 -2239 0
-2237 -2240 0
-2238 -2239 0
-2238 -2240 0
-2239 -2240 0
-2241 -2242 0
-2241 -2243 0
-2241 -2244 0
-2242 -2243 0
-2242 -2244 0
-2243 -2244 0
-2245 -2246 0
-2245 -2247 0
-2245 -2248 0
-2246 -2247 0
-2246 -2248 0
-2247 -2248 0
-2249 -2250 0
-2249 -2251 0
-2249 -2252 0
-2250 -2251 0
-2250 -2252 0
-2251 -2252 0
-2253 -2254 0
-2253 -2255 0
-2253 -2256 0
-2254 -2255 0
-2254 -2256 0
-2255 -2256 0
-2257 -2258 0
-2257 -2259 0
-2257 -2260 0
-2258 -2259 0
-2258 -2260 0
-2259 -2260 0
-2261 -2262 0
-2261 -2263 0
-2261 -2264 0
-2262 -2263 0
-2262 -2264 0
-2263 -2264 0
-2265 -2266 0
-2265 -2267 0
-2265 -2268 0
-2266 -2267 0
-2266 -2268 0
-2267 -2268 0
-2269 -2270 0
-2269 -2271 0
-2269 -2272 0
-2270 -2271 0
-2270 -2272 0
-2271 -2272 0
-2273 -2274 0
-2273 -2275 0
-2273 -2276 0
-2274 -2275 0
-2274 -2276 0
-2275 -2276 0
-2277 -2278 0
-2277 -2279 0
-2277 -2280 0
-2278 -2279 0
-2278 -2280 0
-2279 -2280 0
-2281 -2282 0
-2281 -2283 0
-2281 -2284 0
-2282 -2283 0
-2282 -2284 0
-2283 -2284 0
-2285 -2286 0
-2285 -2287 0
-2285 -2288 0
-2286 -2287 0
-2286 -2288 0
-2287 -2288 0
-2289 -2290 0
-2289 -2291 0
-2289 -2292 0
-2290 -2291 0
-2290 -2292 0
-2291 -2292 0
-2293 -2294 0
-2293 -2295 0
-2293 -2296 0
-2294 -2295 0
-2294 -2296 0
-2295 -2296 0
-2297 -2298 0
-2297 -2299 0
-2297 -2300 0
-2298 -2299 0
-2298 -2300 0
-2299 -2300 0
-2301 -2302 0
-2301 -2303 0
-2301 -2304 0
-2302 -2303 0
-2302 -2304 0
-2303 -2304 0
-2305 -2306 0
-2305 -2307 0
-2305 -2308 0
-2306 -2307 0
-2306 -2308 0
-2307 -2308 0
-2309 -2310 0
-2309 -2311 0
-2309 -2312 0
-2310 -2311 0
-2310 -2312 0
-2311 -2312 0
-2313 -2314 0
-2313 -2315 0
-2313 -2316 0
-2314 -2315 0
-2314 -2316 0
-2315 -2316 0
-2317 -2318 0
-2317 -2319 0
-2317 -2320 0
-2318 -2319 0
-2318 -2320 0
-2319 -2320 0
-2321 -2322 0
-2321 -2323 0
-2321 -2324 0
-2322 -2323 0
-2322 -2324 0
-2323 -2324 0
-2325 -2326 0
-2325 -2327 0
-2325 -2328 0
-2326 -2327 0
-2326 -2328 0
-2327 -2328 0
-2329 -2330 0
-2329 -2331 0
-2329 -2332 0
-2330 -2331 0
-2330 -2332 0
-2331 -2332 0
-2333 -2334 0
-2333 -2335 0
-2333 -2336 0
-2334 -2335 0
-2334 -2336 0
-2335 -2336 0
-2337 -2338 0
-2337 -2339 0
-2337 -2340 0
-2338 -2339 0
-2338 -2340 0
-2339 -2340 0
-2341 -2342 0
-2341 -2343 0
-2341 -2344 0
-2342 -2343 0
-2342 -2344 0
-2343 -2344 0
-2345 -2346 0
-2345 -2347 0
-2345 -2348 0
-2346 -2347 0
-2346 -2348 0
-2347 -2348 0
-2349 -2350 0
-2349 -2351 0
-2349 -2352 0
-2350 -2351 0
-2350 -2352 0
-2351 -2352 0
-2353 -2354 0
-2353 -2355 0
-2353 -2356 0
-2354 -2355 0
-2354 -2356 0
-2355 -2356 0
-2357 -2358 0
-2357 -2359 0
-2357 -2360 0
-2358 -2359 0
-2358 -2360 0
-2359 -2360 0
-2361 -2362 0
-2361 -2363 0
-2361 -2364 0
-2362 -2363 0
-2362 -2364 0
-2363 -2364 0
-2365 -2366 0
-2365 -2367 0
-2365 -2368 0
-2366 -2367 0
-2366 -2368 0
-2367 -2368 0
-2369 -2370 0
-2369 -2371 0
-2369 -2372 0
-2370 -2371 0
-2370 -2372 0
-2371 -2372 0
-2373 -2374 0
-2373 -2375 0
-2373 -2376 0
-2374 -2375 0
-2374 -2376 0
-2375 -2376 0
-2377 -2378 0
-2377 -2379 0
-2377 -2380 0
-2378 -2379 0
-2378 -2380 0
-2379 -2380 0
-2381 -2382 0
-2381 -2383 0
-2381 -2384 0
-2382 -2383 0
-2382 -2384 0
-2383 -2384 0
-2385 -2386 0
-2385 -2387 0
-2385 -2388 0
-2386 -2387 0
-2386 -2388 0
-2387 -2388 0
-2389 -2390 0
-2389 -2391 0
-2389 -2392 0
-2390 -2391 0
-2390 -2392 0
-2391 -2392 0
-2393 -2394 0
-2393 -2395 0
-2393 -2396 0
-2394 -2395 0
-2394 -2396 0
-2395 -2396 0
-2397 -2398 0
-2397 -2399 0
-2397 -2400 0
-2398 -2399 0
-2398 -2400 0
-2399 -2400 0
-2401 -2402 0
-2401 -2403 0
-2401 -2404 0
-2402 -2403 0
-2402 -2404 0
-2403 -2404 0
-2405 -2406 0
-2405 -2407 0
-2405 -2408 0
-2406 -2407 0
-2406 -2408 0
-2407 -2408 0
-2409 -2410 0
-2409 -2411 0
-2409 -2412 0
-2410 -2411 0
-2410 -2412 0
-2411 -2412 0
-2413 -2414 0
-2413 -2415 0
-2413 -2416 0
-2414 -2415 0
-2414 -2416 0
-2415 -2416 0
-2417 -2418 0
-2417 -2419 0
-2417 -2420 0
-2418 -2419 0
-2418 -2420 0
-2419 -2420 0
-2421 -2422 0
-2421 -2423 0
-2421 -2424 0
-2422 -2423 0
-2422 -2424 0
-2423 -2424 0
-2425 -2426 0
-2425 -2427 0
-2425 -2428 0
-2426 -2427 0
-2426 -2428 0
-2427 -2428 0
-2429 -2430 0
-2429 -2431 0
-2429 -2432 0
-2430 -2431 0
-2430 -2432 0
-2431 -2432 0
-2433 -2434 0
-2433 -2435 0
-2433 -2436 0
-2434 -2435 0
-2434 -2436 0
-2435 -2436 0
-2437 -2438 0
-2437 -2439 0
-2437 -2440 0
-2438 -2439 0
-2438 -2440 0
-2439 -2440 0
-2441 -2442 0
-2441 -2443 0
-2441 -2444 0
-2442 -2443 0
-2442 -2444 0
-2443 -2444 0
-2445 -2446 0
-2445 -2447 0
-2445 -2448 0
-2446 -2447 0
-2446 -2448 0
-2447 -2448 0
-2449 -2450 0
-2449 -2451 0
-2449 -2452 0
-2450 -2451 0
-2450 -2452 0
-2451 -2452 0
-2453 -2454 0
-2453 -2455 0
-2453 -2456 0
-2454 -2455 0
-2454 -2456 0
-2455 -2456 0
-2457 -2458 0
-2457 -2459 0
-2457 -2460 0
-2458 -2459 0
-2458 -2460 0
-2459 -2460 0
-2461 -2462 0
-2461 -2463 0
-2461 -2464 0
-2462 -2463 0
-2462 -2464 0
-2463 -2464 0
-2465 -2466 0
-2465 -2467 0
-2465 -2468 0
-2466 -2467 0
-2466 -2468 0
-2467 -2468 0
-2469 -2470 0
-2469 -2471 0
-2469 -2472 0
-2470 -2471 0
-2470 -2472 0
-2471 -2472 0
-2473 -2474 0
-2473 -2475 0
-2473 -2476 0
-2474 -2475 0
-2474 -2476 0
-2475 -2476 0
-2477 -2478 0
-2477 -2479 0
-2477 -2480 0
-2478 -2479 0
-2478 -2480 0
-2479 -2480 0
-2481 -2482 0
-2481 -2483 0
-2481 -2484 0
-2482 -2483 0
-2482 -2484 0
-2483 -2484 0
-2485 -2486 0
-2485 -2487 0
-2485 -2488 0
-2486 -2487 0
-2486 -2488 0
-2487 -2488 0
-2489 -2490 0
-2489 -2491 0
-2489 -2492 0
-2490 -2491 0
-2490 -2492 0
-2491 -2492 0
-2493 -2494 0
-2493 -2495 0
-2493 -2496 0
-2494 -2495 0
-2494 -2496 0
-2495 -2496 0
-2497 -2498 0
-2497 -2499 0
-2497 -2500 0
-2498 -2499 0
-2498 -2500 0
-2499 -2500 0
-2501 -2502 0
-2501 -2503 0
-2501 -2504 0
-2502 -2503 0
-2502 -2504 0
-2503 -2504 0
-2505 -2506 0
-2505 -2507 0
-2505 -2508 0
-2506 -2507 0
-2506 -2508 0
-2507 -2508 0
-2509 -2510 0
-2509 -2511 0
-2509 -2512 0
-2510 -2511 0
-2510 -2512 0
-2511 -2512 0
-2513 -2514 0
-2513 -2515 0
-2513 -2516 0
-2514 -2515 0
-2514 -2516 0
-2515 -2516 0
-2517 -2518 0
-2517 -2519 0
-2517 -2520 0
-2518 -2519 0
-2518 -2520 0
-2519 -2520 0
-2521 -2522 0
-2521 -2523 0
-2521 -2524 0
-2522 -2523 0
-2522 -2524 0
-2523 -2524 0
-2525 -2526 0
-2525 -2527 0
-2525 -2528 0
-2526 -2527 0
-2526 -2528 0
-2527 -2528 0
-2529 -2530 0
-2529 -2531 0
-2529 -2532 0
-2530 -2531 0
-2530 -2532 0
-2531 -2532 0
-2533 -2534 0
-2533 -2535 0
-2533 -2536 0
-2534 -2535 0
-2534 -2536 0
-2535 -2536 0
-2537 -2538 0
-2537 -2539 0
-2537 -2540 0
-2538 -2539 0
-2538 -2540 0
-2539 -2540 0
-2541 -2542 0
-2541 -2543 0
-2541 -2544 0
-2542 -2543 0
-2542 -2544 0
-2543 -2544 0
-2545 -2546 0
-2545 -2547 0
-2545 -2548 0
-2546 -2547 0
-2546 -2548 0
-2547 -2548 0
-2549 -2550 0
-2549 -2551 0
-2549 -2552 0
-2550 -2551 0
-2550 -2552 0
-2551 -2552 0
-2553 -2554 0
-2553 -2555 0
-2553 -2556 0
-2554 -2555 0
-2554 -2556 0
-2555 -2556 0
-2557 -2558 0
-2557 -2559 0
-2557 -2560 0
-2558 -2559 0
-2558 -2560 0
-2559 -2560 0
-2561 -2562 0
-2561 -2563 0
-2561 -2564 0
-2562 -2563 0
-2562 -2564 0
-2563 -2564 0
-2565 -2566 0
-2565 -2567 0
-2565 -2568 0
-2566 -2567 0
-2566 -2568 0
-2567 -2568 0
-2569 -2570 0
-2569 -2571 0
-2569 -2572 0
-2570 -2571 0
-2570 -2572 0
-2571 -2572 0
-2573 -2574 0
-2573 -2575 0
-2573 -2576 0
-2574 -2575 0
-2574 -2576 0
-2575 -2576 0
-2577 -2578 0
-2577 -2579 0
-2577 -2580 0
-2578 -2579 0
-2578 -2580 0
-2579 -2580 0
-2581 -2582 0
-2581 -2583 0
-2581 -2584 0
-2582 -2583 0
-2582 -2584 0
-2583 -2584 0
-2585 -2586 0
-2585 -2587 0
-2585 -2588 0
-2586 -2587 0
-2586 -2588 0
-2587 -2588 0
-2589 -2590 0
-2589 -2591 0
-2589 -2592 0
-2590 -2591 0
-2590 -2592 0
-2591 -2592 0
-2593 -2594 0
-2593 -2595 0
-2593 -2596 0
-2594 -2595 0
-2594 -2596 0
-2595 -2596 0
-2597 -2598 0
-2597 -2599 0
-2597 -2600 0
-2598 -2599 0
-2598 -2600 0
-2599 -2600 0
-2601 -2602 0
-2601 -2603 0
-2601 -2604 0
-2602 -2603 0
-2602 -2604 0
-2603 -2604 0
-2605 -2606 0
-2605 -2607 0
-2605 -2608 0
-2606 -2607 0
-2606 -2608 0
-2607 -2608 0
-2609 -2610 0
-2609 -2611 0
-2609 -2612 0
-2610 -2611 0
-2610 -2612 0
-2611 -2612 0
-2613 -2614 0
-2613 -2615 0
-2613 -2616 0
-2614 -2615 0
-2614 -2616 0
-2615 -2616 0
-2617 -2618 0
-2617 -2619 0
-2617 -2620 0
-2618 -2619 0
-2618 -2620 0
-2619 -2620 0
-2621 -2622 0
-2621 -2623 0
-2621 -2624 0
-2622 -2623 0
-2622 -2624 0
-2623 -2624 0
-2625 -2626 0
-2625 -2627 0
-2625 -2628 0
-2626 -2627 0
-2626 -2628 0
-2627 -2628 0
-2629 -2630 0
-2629 -2631 0
-2629 -2632 0
-2630 -2631 0
-2630 -2632 0
-2631 -2632 0
-2633 -2634 0
-2633 -2635 0
-2633 -2636 0
-2634 -2635 0
-2634 -2636 0
-2635 -2636 0
-2637 -2638 0
-2637 -2639 0
-2637 -2640 0
-2638 -2639 0
-2638 -2640 0
-2639 -2640 0
-2641 -2642 0
-2641 -2643 0
-2641 -2644 0
-2642 -2643 0
-2642 -2644 0
-2643 -2644 0
-2645 -2646 0
-2645 -2647 0
-2645 -2648 0
-2646 -2647 0
-2646 -2648 0
-2647 -2648 0
-2649 -2650 0
-2649 -2651 0
-2649 -2652 0
-2650 -2651 0
-2650 -2652 0
-2651 -2652 0
-2653 -2654 0
-2653 -2655 0
-2653 -2656 0
-2654 -2655 0
-2654 -2656 0
-2655 -2656 0
-2657 -2658 0
-2657 -2659 0
-2657 -2660 0
-2658 -2659 0
-2658 -2660 0
-2659 -2660 0
-2661 -2662 0
-2661 -2663 0
-2661 -2664 0
-2662 -2663 0
-2662 -2664 0
-2663 -2664 0
-2665 -2666 0
-2665 -2667 0
-2665 -2668 0
-2666 -2667 0
-2666 -2668 0
-2667 -2668 0
-2669 -2670 0
-2669 -2671 0
-2669 -2672 0
-2670 -2671 0
-2670 -2672 0
-2671 -2672 0
-2673 -2674 0
-2673 -2675 0
-2673 -2676 0
-2674 -2675 0
-2674 -2676 0
-2675 -2676 0
-2677 -2678 0
-2677 -2679 0
-2677 -2680 0
-2678 -2679 0
-2678 -2680 0
-2679 -2680 0
-2681 -2682 0
-2681 -2683 0
-2681 -2684 0
-2682 -2683 0
-2682 -2684 0
-2683 -2684 0
-2685 -2686 0
-2685 -2687 0
-2685 -2688 0
-2686 -2687 0
-2686 -2688 0
-2687 -2688 0
-2689 -2690 0
-2689 -2691 0
-2689 -2692 0
-2690 -2691 0
-2690 -2692 0
-2691 -2692 0
-2693 -2694 0
-2693 -2695 0
-2693 -2696 0
-2694 -2695 0
-2694 -2696 0
-2695 -2696 0
-2697 -2698 0
-2697 -2699 0
-2697 -2700 0
-2698 -2699 0
-2698 -2700 0
-2699 -2700 0
-2701 -2702 0
-2701 -2703 0
-2701 -2704 0
-2702 -2703 0
-2702 -2704 0
-2703 -2704 0
-2705 -2706 0
-2705 -2707 0
-2705 -2708 0
-2706 -2707 0
-2706 -2708 0
-2707 -2708 0
-2709 -2710 0
-2709 -2711 0
-2709 -2712 0
-2710 -2711 0
-2710 -2712 0
-2711 -2712 0
-2713 -2714 0
-2713 -2715 0
-2713 -2716 0
-2714 -2715 0
-2714 -2716 0
-2715 -2716 0
-2717 -2718 0
-2717 -2719 0
-2717 -2720 0
-2718 -2719 0
-2718 -2720 0
-2719 -2720 0
-2721 -2722 0
-2721 -2723 0
-2721 -2724 0
-2722 -2723 0
-2722 -2724 0
-2723 -2724 0
-2725 -2726 0
-2725 -2727 0
-2725 -2728 0
-2726 -2727 0
-2726 -2728 0
-2727 -2728 0
-2729 -2730 0
-2729 -2731 0
-2729 -2732 0
-2730 -2731 0
-2730 -2732 0
-2731 -2732 0
-2733 -2734 0
-2733 -2735 0
-2733 -2736 0
-2734 -2735 0
-2734 -2736 0
-2735 -2736 0
-2737 -2738 0
-2737 -2739 0
-2737 -2740 0
-2738 -2739 0
-2738 -2740 0
-2739 -2740 0
-2741 -2742 0
-2741 -2743 0
-2741 -2744 0
-2742 -2743 0
-2742 -2744 0
-2743 -2744 0
-2745 -2746 0
-2745 -2747 0
-2745 -2748 0
-2746 -2747 0
-2746 -2748 0
-2747 -2748 0
-2749 -2750 0
-2749 -2751 0
-2749 -2752 0
-2750 -2751 0
-2750 -2752 0
-2751 -2752 0
-2753 -2754 0
-2753 -2755 0
-2753 -2756 0
-2754 -2755 0
-2754 -2756 0
-2755 -2756 0
-2757 -2758 0
-2757 -2759 0
-2757 -2760 0
-2758 -2759 0
-2758 -2760 0
-2759 -2760 0
-2761 -2762 0
-2761 -2763 0
-2761 -2764 0
-2762 -2763 0
-2762 -2764 0
-2763 -2764 0
-2765 -2766 0
-2765 -2767 0
-2765 -2768 0
-2766 -2767 0
-2766 -2768 0
-2767 -2768 0
-2769 -2770 0
-2769 -2771 0
-2769 -2772 0
-2770 -2771 0
-2770 -2772 0
-2771 -2772 0
-2773 -2774 0
-2773 -2775 0
-2773 -2776 0
-2774 -2775 0
-2774 -2776 0
-2775 -2776 0
-2777 -2778 0
-2777 -2779 0
-2777 -2780 0
-2778 -2779 0
-2778 -2780 0
-2779 -2780 0
-2781 -2782 0
-2781 -2783 0
-2781 -2784 0
-2782 -2783 0
-2782 -2784 0
-2783 -2784 0
-2785 -2786 0
-2785 -2787 0
-2785 -2788 0
-2786 -2787 0
-2786 -2788 0
-2787 -2788 0
-2789 -2790 0
-2789 -2791 0
-2789 -2792 0
-2790 -2791 0
-2790 -2792 0
-2791 -2792 0
-2793 -2794 0
-2793 -2795 0
-2793 -2796 0
-2794 -2795 0
-2794 -2796 0
-2795 -2796 0
-2797 -2798 0
-2797 -2799 0
-2797 -2800 0
-2798 -2799 0
-2798 -2800 0
-2799 -2800 0
-2801 -2802 0
-2801 -2803 0
-2801 -2804 0
-2802 -2803 0
-2802 -2804 0
-2803 -2804 0
-2805 -2806 0
-2805 -2807 0
-2805 -2808 0
-2806 -2807 0
-2806 -2808 0
-2807 -2808 0
-2809 -2810 0
-2809 -2811 0
-2809 -2812 0
-2810 -2811 0
-2810 -2812 0
-2811 -2812 0
-2813 -2814 0
-2813 -2815 0
-2813 -2816 0
-2814 -2815 0
-2814 -2816 0
-2815 -2816 0
-2817 -2818 0
-2817 -2819 0
-2817 -2820 0
-2818 -2819 0
-2818 -2820 0
-2819 -2820 0
-2821 -2822 0
-2821 -2823 0
-2821 -2824 0
-2822 -2823 0
-2822 -2824 0
-2823 -2824 0
-2825 -2826 0
-2825 -2827 0
-2825 -2828 0
-2826 -2827 0
-2826 -2828 0
-2827 -2828 0
-2829 -2830 0
-2829 -2831 0
-2829 -2832 0
-2830 -2831 0
-2830 -2832 0
-2831 -2832 0
-2833 -2834 0
-2833 -2835 0
-2833 -2836 0
-2834 -2835 0
-2834 -2836 0
-2835 -2836 0
-2837 -2838 0
-2837 -2839 0
-2837 -2840 0
-2838 -2839 0
-2838 -2840 0
-2839 -2840 0
-2841 -2842 0
-2841 -2843 0
-2841 -2844 0
-2842 -2843 0
-2842 -2844 0
-2843 -2844 0
-2845 -2846 0
-2845 -2847 0
-2845 -2848 0
-2846 -2847 0
-2846 -2848 0
-2847 -2848 0
-2849 -2850 0
-2849 -2851 0
-2849 -2852 0
-2850 -2851 0
-2850 -2852 0
-2851 -2852 0
-2853 -2854 0
-2853 -2855 0
-2853 -2856 0
-2854 -2855 0
-2854 -2856 0
-2855 -2856 0
-2857 -2858 0
-2857 -2859 0
-2857 -2860 0
-2858 -2859 0
-2858 -2860 0
-2859 -2860 0
-2861 -2862 0
-2861 -2863 0
-2861 -2864 0
-2862 -2863 0
-2862 -2864 0
-2863 -2864 0
-2865 -2866 0
-2865 -2867 0
-2865 -2868 0
-2866 -2867 0
-2866 -2868 0
-2867 -2868 0
-2869 -2870 0
-2869 -2871 0
-2869 -2872 0
-2870 -2871 0
-2870 -2872 0
-2871 -2872 0
-2873 -2874 0
-2873 -2875 0
-2873 -2876 0
-2874 -2875 0
-2874 -2876 0
-2875 -2876 0
-2877 -2878 0
-2877 -2879 0
-2877 -2880 0
-2878 -2879 0
-2878 -2880 0
-2879 -2880 0
-2881 -2882 0
-2881 -2883 0
-2881 -2884 0
-2882 -2883 0
-2882 -2884 0
-2883 -2884 0
-2885 -2886 0
-2885 -2887 0
-2885 -2888 0
-2886 -2887 0
-2886 -2888 0
-2887 -2888 0
-2889 -2890 0
-2889 -2891 0
-2889 -2892 0
-2890 -2891 0
-2890 -2892 0
-2891 -2892 0
-2893 -2894 0
-2893 -2895 0
-2893 -2896 0
-2894 -2895 0
-2894 -2896 0
-2895 -2896 0
-2897 -2898 0
-2897 -2899 0
-2897 -2900 0
-2898 -2899 0
-2898 -2900 0
-2899 -2900 0
-2901 -2902 0
-2901 -2903 0
-2901 -2904 0
-2902 -2903 0
-2902 -2904 0
-2903 -2904 0
-2905 -2906 0
-2905 -2907 0
-2905 -2908 0
-2906 -2907 0
-2906 -2908 0
-2907 -2908 0
-2909 -2910 0
-2909 -2911 0
-2909 -2912 0
-2910 -2911 0
-2910 -2912 0
-2911 -2912 0
-2913 -2914 0
-2913 -2915 0
-2913 -2916 0
-2914 -2915 0
-2914 -2916 0
-2915 -2916 0
-2917 -2918 0
-2917 -2919 0
-2917 -2920 0
-2918 -2919 0
-2918 -2920 0
-2919 -2920 0
-2921 -2922 0
-2921 -2923 0
-2921 -2924 0
-2922 -2923 0
-2922 -2924 0
-2923 -2924 0
-2925 -2926 0
-2925 -2927 0
-2925 -2928 0
-2926 -2927 0
-2926 -2928 0
-2927 -2928 0
-2929 -2930 0
-2929 -2931 0
-2929 -2932 0
-2930 -2931 0
-2930 -2932 0
-2931 -2932 0
-2933 -2934 0
-2933 -2935 0
-2933 -2936 0
-2934 -2935 0
-2934 -2936 0
-2935 -2936 0
-2937 -2938 0
-2937 -2939 0
-2937 -2940 0
-2938 -2939 0
-2938 -2940 0
-2939 -2940 0
-2941 -2942 0
-2941 -2943 0
-2941 -2944 0
-2942 -2943 0
-2942 -2944 0
-2943 -2944 0
-2945 -2946 0
-2945 -2947 0
-2945 -2948 0
-2946 -2947 0
-2946 -2948 0
-2947 -2948 0
-2949 -2950 0
-2949 -2951 0
-2949 -2952 0
-2950 -2951 0
-2950 -2952 0
-2951 -2952 0
-2953 -2954 0
-2953 -2955 0
-2953 -2956 0
-2954 -2955 0
-2954 -2956 0
-2955 -2956 0
-2957 -2958 0
-2957 -2959 0
-2957 -2960 0
-2958 -2959 0
-2958 -2960 0
-2959 -2960 0
-2961 -2962 0
-2961 -2963 0
-2961 -2964 0
-2962 -2963 0
-2962 -2964 0
-2963 -2964 0
-2965 -2966 0
-2965 -2967 0
-2965 -2968 0
-2966 -2967 0
-2966 -2968 0
-2967 -2968 0
-2969 -2970 0
-2969 -2971 0
-2969 -2972 0
-2970 -2971 0
-2970 -2972 0
-2971 -2972 0
-2973 -2974 0
-2973 -2975 0
-2973 -2976 0
-2974 -2975 0
-2974 -2976 0
-2975 -2976 0
-2977 -2978 0
-2977 -2979 0
-2977 -2980 0
-2978 -2979 0
-2978 -2980 0
-2979 -2980 0
-2981 -2982 0
-2981 -2983 0
-2981 -2984 0
-2982 -2983 0
-2982 -2984 0
-2983 -2984 0
-2985 -2986 0
-2985 -2987 0
-2985 -2988 0
-2986 -2987 0
-2986 -2988 0
-2987 -2988 0
-2989 -2990 0
-2989 -2991 0
-2989 -2992 0
-2990 -2991 0
-2990 -2992 0
-2991 -2992 0
-2993 -2994 0
-2993 -2995 0
-2993 -2996 0
-2994 -2995 0
-2994 -2996 0
-2995 -2996 0
-2997 -2998 0
-2997 -2999 0
-2997 -3000 0
-2998 -2999 0
-2998 -3000 0
-2999 -3000 0
-3001 -3002 0
-3001 -3003 0
-3001 -3004 0
-3002 -3003 0
-3002 -3004 0
-3003 -3004 0
-3005 -3006 0
-3005 -3007 0
-3005 -3008 0
-3006 -3007 0
-3006 -3008 0
-3007 -3008 0
-3009 -3010 0
-3009 -3011 0
-3009 -3012 0
-3010 -3011 0
-3010 -3012 0
-3011 -3012 0
-3013 -3014 0
-3013 -3015 0
-3013 -3016 0
-3014 -3015 0
-3014 -3016 0
-3015 -3016 0
-3017 -3018 0
-3017 -3019 0
-3017 -3020 0
-3018 -3019 0
-3018 -3020 0
-3019 -3020 0
-3021 -3022 0
-3021 -3023 0
-3021 -3024 0
-3022 -3023 0
-3022 -3024 0
-3023 -3024 0
-3025 -3026 0
-3025 -3027 0
-3025 -3028 0
-3026 -3027 0
-3026 -3028 0
-3027 -3028 0
-3029 -3030 0
-3029 -3031 0
-3029 -3032 0
-3030 -3031 0
-3030 -3032 0
-3031 -3032 0
-3033 -3034 0
-3033 -3035 0
-3033 -3036 0
-3034 -3035 0
-3034 -3036 0
-3035 -3036 0
-3037 -3038 0
-3037 -3039 0
-3037 -3040 0
-3038 -3039 0
-3038 -3040 0
-3039 -3040 0
-3041 -3042 0
-3041 -3043 0
-3041 -3044 0
-3042 -3043 0
-3042 -3044 0
-3043 -3044 0
-3045 -3046 0
-3045 -3047 0
-3045 -3048 0
-3046 -3047 0
-3046 -3048 0
-3047 -3048 0
-3049 -3050 0
-3049 -3051 0
-3049 -3052 0
-3050 -3051 0
-3050 -3052 0
-3051 -3052 0
-3053 -3054 0
-3053 -3055 0
-3053 -3056 0
-3054 -3055 0
-3054 -3056 0
-3055 -3056 0
-3057 -3058 0
-3057 -3059 0
-3057 -3060 0
-3058 -3059 0
-3058 -3060 0
-3059 -3060 0
-3061 -3062 0
-3061 -3063 0
-3061 -3064 0
-3062 -3063 0
-3062 -3064 0
-3063 -3064 0
-3065 -3066 0
-3065 -3067 0
-3065 -3068 0
-3066 -3067 0
-3066 -3068 0
-3067 -3068 0
-3069 -3070 0
-3069 -3071 0
-3069 -3072 0
-3070 -3071 0
-3070 -3072 0
-3071 -3072 0
-3073 -3074 0
-3073 -3075 0
-3073 -3076 0
-3074 -3075 0
-3074 -3076 0
-3075 -3076 0
-3077 -3078 0
-3077 -3079 0
-3077 -3080 0
-3078 -3079 0
-3078 -3080 0
-3079 -3080 0
-3081 -3082 0
-3081 -3083 0
-3081 -3084 0
-3082 -3083 0
-3082 -3084 0
-3083 -3084 0
-3085 -3086 0
-3085 -3087 0
-3085 -3088 0
-3086 -3087 0
-3086 -3088 0
-3087 -3088 0
-3089 -3090 0
-3089 -3091 0
-3089 -3092 0
-3090 -3091 0
-3090 -3092 0
-3091 -3092 0
-3093 -3094 0
-3093 -3095 0
-3093 -3096 0
-3094 -3095 0
-3094 -3096 0
-3095 -3096 0
-3097 -3098 0
-3097 -3099 0
-3097 -3100 0
-3098 -3099 0
-3098 -3100 0
-3099 -3100 0
-3101 -3102 0
-3101 -3103 0
-3101 -3104 0
-3102 -3103 0
-3102 -3104 0
-3103 -3104 0
-3105 -3106 0
-3105 -3107 0
-3105 -3108 0
-3106 -3107 0
-3106 -3108 0
-3107 -3108 0
-3109 -3110 0
-3109 -3111 0
-3109 -3112 0
-3110 -3111 0
-3110 -3112 0
-3111 -3112 0
-3113 -3114 0
-3113 -3115 0
-3113 -3116 0
-3114 -3115 0
-3114 -3116 0
-3115 -3116 0
-3117 -3118 0
-3117 -3119 0
-3117 -3120 0
-3118 -3119 0
-3118 -3120 0
-3119 -3120 0
-3121 -3122 0
-3121 -3123 0
-3121 -3124 0
-3122 -3123 0
-3122 -3124 0
-3123 -3124 0
-3125 -3126 0
-3125 -3127 0
-3125 -3128 0
-3126 -3127 0
-3126 -3128 0
-3127 -3128 0
-3129 -3130 0
-3129 -3131 0
-3129 -3132 0
-3130 -3131 0
-3130 -3132 0
-3131 -3132 0
-3133 -3134 0
-3133 -3135 0
-3133 -3136 0
-3134 -3135 0
-3134 -3136 0
-3135 -3136 0
-3137 -3138 0
-3137 -3139 0
-3137 -3140 0
-3138 -3139 0
-3138 -3140 0
-3139 -3140 0
-3141 -3142 0
-3141 -3143 0
-3141 -3144 0
-3142 -3143 0
-3142 -3144 0
-3143 -3144 0
-3145 -3146 0
-3145 -3147 0
-3145 -3148 0
-3146 -3147 0
-3146 -3148 0
-3147 -3148 0
-3149 -3150 0
-3149 -3151 0
-3149 -3152 0
-3150 -3151 0
-3150 -3152 0
-3151 -3152 0
-3153 -3154 0
-3153 -3155 0
-3153 -3156 0
-3154 -3155 0
-3154 -3156 0
-3155 -3156 0
-3157 -3158 0
-3157 -3159 0
-3157 -3160 0
-3158 -3159 0
-3158 -3160 0
-3159 -3160 0
-3161 -3162 0
-3161 -3163 0
-3161 -3164 0
-3162 -3163 0
-3162 -3164 0
-3163 -3164 0
-3165 -3166 0
-3165 -3167 0
-3165 -3168 0
-3166 -3167 0
-3166 -3168 0
-3167 -3168 0
-3169 -3170 0
-3169 -3171 0
-3169 -3172 0
-3170 -3171 0
-3170 -3172 0
-3171 -3172 0
-3173 -3174 0
-3173 -3175 0
-3173 -3176 0
-3174 -3175 0
-3174 -3176 0
-3175 -3176 0
-3177 -3178 0
-3177 -3179 0
-3177 -3180 0
-3178 -3179 0
-3178 -3180 0
-3179 -3180 0
-3181 -3182 0
-3181 -3183 0
-3181 -3184 0
-3182 -3183 0
-3182 -3184 0
-3183 -3184 0
-3185 -3186 0
-3185 -3187 0
-3185 -3188 0
-3186 -3187 0
-3186 -3188 0
-3187 -3188 0
-3189 -3190 0
-3189 -3191 0
-3189 -3192 0
-3190 -3191 0
-3190 -3192 0
-3191 -3192 0
-3193 -3194 0
-3193 -3195 0
-3193 -3196 0
-3194 -3195 0
-3194 -3196 0
-3195 -3196 0
-3197 -3198 0
-3197 -3199 0
-3197 -3200 0
-3198 -3199 0
-3198 -3200 0
-3199 -3200 0
-3201 -3202 0
-3201 -3203 0
-3201 -3204 0
-3202 -3203 0
-3202 -3204 0
-3203 -3204 0
-3205 -3206 0
-3205 -3207 0
-3205 -3208 0
-3206 -3207 0
-3206 -3208 0
-3207 -3208 0
-3209 -3210 0
-3209 -3211 0
-3209 -3212 0
-3210 -3211 0
-3210 -3212 0
-3211 -3212 0
-3213 -3214 0
-3213 -3215 0
-3213 -3216 0
-3214 -3215 0
-3214 -3216 0
-3215 -3216 0
-3217 -3218 0
-3217 -3219 0
-3217 -3220 0
-3218 -3219 0
-3218 -3220 0
-3219 -3220 0
-3221 -3222 0
-3221 -3223 0
-3221 -3224 0
-3222 -3223 0
-3222 -3224 0
-3223 -3224 0
-3225 -3226 0
-3225 -3227 0
-3225 -3228 0
-3226 -3227 0
-3226 -3228 0
-3227 -3228 0
-3229 -3230 0
-3229 -3231 0
-3229 -3232 0
-3230 -3231 0
-3230 -3232 0
-3231 -3232 0
-3233 -3234 0
-3233 -3235 0
-3233 -3236 0
-3234 -3235 0
-3234 -3236 0
-3235 -3236 0
-3237 -3238 0
-3237 -3239 0
-3237 -3240 0
-3238 -3239 0
-3238 -3240 0
-3239 -3240 0
-3241 -3242 0
-3241 -3243 0
-3241 -3244 0
-3242 -3243 0
-3242 -3244 0
-3243 -3244 0
-3245 -3246 0
-3245 -3247 0
-3245 -3248 0
-3246 -3247 0
-3246 -3248 0
-3247 -3248 0
-3249 -3250 0
-3249 -3251 0
-3249 -3252 0
-3250 -3251 0
-3250 -3252 0
-3251 -3252 0
-3253 -3254 0
-3253 -3255 0
-3253 -3256 0
-3254 -3255 0
-3254 -3256 0
-3255 -3256 0
-3257 -3258 0
-3257 -3259 0
-3257 -3260 0
-3258 -3259 0
-3258 -3260 0
-3259 -3260 0
-3261 -3262 0
-3261 -3263 0
-3261 -3264 0
-3262 -3263 0
-3262 -3264 0
-3263 -3264 0
-3265 -3266 0
-3265 -3267 0
-3265 -3268 0
-3266 -3267 0
-3266 -3268 0
-3267 -3268 0
-3269 -3270 0
-3269 -3271 0
-3269 -3272 0
-3270 -3271 0
-3270 -3272 0
-3271 -3272 0
-3273 -3274 0
-3273 -3275 0
-3273 -3276 0
-3274 -3275 0
-3274 -3276 0
-3275 -3276 0
-3277 -3278 0
-3277 -3279 0
-3277 -3280 0
-3278 -3279 0
-3278 -3280 0
-3279 -3280 0
-3281 -3282 0
-3281 -3283 0
-3281 -3284 0
-3282 -3283 0
-3282 -3284 0
-3283 -3284 0
-3285 -3286 0
-3285 -3287 0
-3285 -3288 0
-3286 -3287 0
-3286 -3288 0
-3287 -3288 0
-3289 -3290 0
-3289 -3291 0
-3289 -3292 0
-3290 -3291 0
-3290 -3292 0
-3291 -3292 0
-3293 -3294 0
-3293 -3295 0
-3293 -3296 0
-3294 -3295 0
-3294 -3296 0
-3295 -3296 0
-3297 -3298 0
-3297 -3299 0
-3297 -3300 0
-3298 -3299 0
-3298 -3300 0
-3299 -3300 0
-3301 -3302 0
-3301 -3303 0
-3301 -3304 0
-3302 -3303 0
-3302 -3304 0
-3303 -3304 0
-3305 -3306 0
-3305 -3307 0
-3305 -3308 0
-3306 -3307 0
-3306 -3308 0
-3307 -3308 0
-3309 -3310 0
-3309 -3311 0
-3309 -3312 0
-3310 -3311 0
-3310 -3312 0
-3311 -3312 0
-3313 -3314 0
-3313 -3315 0
-3313 -3316 0
-3314 -3315 0
-3314 -3316 0
-3315 -3316 0
-3317 -3318 0
-3317 -3319 0
-3317 -3320 0
-3318 -3319 0
-3318 -3320 0
-3319 -3320 0
-3321 -3322 0
-3321 -3323 0
-3321 -3324 0
-3322 -3323 0
-3322 -3324 0
-3323 -3324 0
-3325 -3326 0
-3325 -3327 0
-3325 -3328 0
-3326 -3327 0
-3326 -3328 0
-3327 -3328 0
-3329 -3330 0
-3329 -3331 0
-3329 -3332 0
-3330 -3331 0
-3330 -3332 0
-3331 -3332 0
-3333 -3334 0
-3333 -3335 0
-3333 -3336 0
-3334 -3335 0
-3334 -3336 0
-3335 -3336 0
-3337 -3338 0
-3337 -3339 0
-3337 -3340 0
-3338 -3339 0
-3338 -3340 0
-3339 -3340 0
-3341 -3342 0
-3341 -3343 0
-3341 -3344 0
-3342 -3343 0
-3342 -3344 0
-3343 -3344 0
-3345 -3346 0
-3345 -3347 0
-3345 -3348 0
-3346 -3347 0
-3346 -3348 0
-3347 -3348 0
-3349 -3350 0
-3349 -3351 0
-3349 -3352 0
-3350 -3351 0
-3350 -3352 0
-3351 -3352 0
-3353 -3354 0
-3353 -3355 0
-3353 -3356 0
-3354 -3355 0
-3354 -3356 0
-3355 -3356 0
-3357 -3358 0
-3357 -3359 0
-3357 -3360 0
-3358 -3359 0
-3358 -3360 0
-3359 -3360 0
-3361 -3362 0
-3361 -3363 0
-3361 -3364 0
-3362 -3363 0
-3362 -3364 0
-3363 -3364 0
-3365 -3366 0
-3365 -3367 0
-3365 -3368 0
-3366 -3367 0
-3366 -3368 0
-3367 -3368 0
-3369 -3370 0
-3369 -3371 0
-3369 -3372 0
-3370 -3371 0
-3370 -3372 0
-3371 -3372 0
-3373 -3374 0
-3373 -3375 0
-3373 -3376 0
-3374 -3375 0
-3374 -3376 0
-3375 -3376 0
-3377 -3378 0
-3377 -3379 0
-3377 -3380 0
-3378 -3379 0
-3378 -3380 0
-3379 -3380 0
-3381 -3382 0
-3381 -3383 0
-3381 -3384 0
-3382 -3383 0
-3382 -3384 0
-3383 -3384 0
-3385 -3386 0
-3385 -3387 0
-3385 -3388 0
-3386 -3387 0
-3386 -3388 0
-3387 -3388 0
-3389 -3390 0
-3389 -3391 0
-3389 -3392 0
-3390 -3391 0
-3390 -3392 0
-3391 -3392 0
-3393 -3394 0
-3393 -3395 0
-3393 -3396 0
-3394 -3395 0
-3394 -3396 0
-3395 -3396 0
-3397 -3398 0
-3397 -3399 0
-3397 -3400 0
-3398 -3399 0
-3398 -3400 0
-3399 -3400 0
-3401 -3402 0
-3401 -3403 0
-3401 -3404 0
-3402 -3403 0
-3402 -3404 0
-3403 -3404 0
-3405 -3406 0
-3405 -3407 0
-3405 -3408 0
-3406 -3407 0
-3406 -3408 0
-3407 -3408 0
-3409 -3410 0
-3409 -3411 0
-3409 -3412 0
-3410 -3411 0
-3410 -3412 0
-3411 -3412 0
-3413 -3414 0
-3413 -3415 0
-3413 -3416 0
-3414 -3415 0
-3414 -3416 0
-3415 -3416 0
-3417 -3418 0
-3417 -3419 0
-3417 -3420 0
-3418 -3419 0
-3418 -3420 0
-3419 -3420 0
-3421 -3422 0
-3421 -3423 0
-3421 -3424 0
-3422 -3423 0
-3422 -3424 0
-3423 -3424 0
-3425 -3426 0
-3425 -3427 0
-3425 -3428 0
-3426 -3427 0
-3426 -3428 0
-3427 -3428 0
-3429 -3430 0
-3429 -3431 0
-3429 -3432 0
-3430 -3431 0
-3430 -3432 0
-3431 -3432 0
-3433 -3434 0
-3433 -3435 0
-3433 -3436 0
-3434 -3435 0
-3434 -3436 0
-3435 -3436 0
-3437 -3438 0
-3437 -3439 0
-3437 -3440 0
-3438 -3439 0
-3438 -3440 0
-3439 -3440 0
-3441 -3442 0
-3441 -3443 0
-3441 -3444 0
-3442 -3443 0
-3442 -3444 0
-3443 -3444 0
-3445 -3446 0
-3445 -3447 0
-3445 -3448 0
-3446 -3447 0
-3446 -3448 0
-3447 -3448 0
-3449 -3450 0
-3449 -3451 0
-3449 -3452 0
-3450 -3451 0
-3450 -3452 0
-3451 -3452 0
-3453 -3454 0
-3453 -3455 0
-3453 -3456 0
-3454 -3455 0
-3454 -3456 0
-3455 -3456 0
-3457 -3458 0
-3457 -3459 0
-3457 -3460 0
-3458 -3459 0
-3458 -3460 0
-3459 -3460 0
-3461 -3462 0
-3461 -3463 0
-3461 -3464 0
-3462 -3463 0
-3462 -3464 0
-3463 -3464 0
-3465 -3466 0
-3465 -3467 0
-3465 -3468 0
-3466 -3467 0
-3466 -3468 0
-3467 -3468 0
-3469 -3470 0
-3469 -3471 0
-3469 -3472 0
-3470 -3471 0
-3470 -3472 0
-3471 -3472 0
-3473 -3474 0
-3473 -3475 0
-3473 -3476 0
-3474 -3475 0
-3474 -3476 0
-3475 -3476 0
-3477 -3478 0
-3477 -3479 0
-3477 -3480 0
-3478 -3479 0
-3478 -3480 0
-3479 -3480 0
-3481 -3482 0
-3481 -3483 0
-3481 -3484 0
-3482 -3483 0
-3482 -3484 0
-3483 -3484 0
-3485 -3486 0
-3485 -3487 0
-3485 -3488 0
-3486 -3487 0
-3486 -3488 0
-3487 -3488 0
-3489 -3490 0
-3489 -3491 0
-3489 -3492 0
-3490 -3491 0
-3490 -3492 0
-3491 -3492 0
-3493 -3494 0
-3493 -3495 0
-3493 -3496 0
-3494 -3495 0
-3494 -3496 0
-3495 -3496 0
-3497 -3498 0
-3497 -3499 0
-3497 -3500 0
-3498 -3499 0
-3498 -3500 0
-3499 -3500 0
-3501 -3502 0
-3501 -3503 0
-3501 -3504 0
-3502 -3503 0
-3502 -3504 0
-3503 -3504 0
-3505 -3506 0
-3505 -3507 0
-3505 -3508 0
-3506 -3507 0
-3506 -3508 0
-3507 -3508 0
-3509 -3510 0
-3509 -3511 0
-3509 -3512 0
-3510 -3511 0
-3510 -3512 0
-3511 -3512 0
-3513 -3514 0
-3513 -3515 0
-3513 -3516 0
-3514 -3515 0
-3514 -3516 0
-3515 -3516 0
-3517 -3518 0
-3517 -3519 0
-3517 -3520 0
-3518 -3519 0
-3518 -3520 0
-3519 -3520 0
-3521 -3522 0
-3521 -3523 0
-3521 -3524 0
-3522 -3523 0
-3522 -3524 0
-3523 -3524 0
-3525 -3526 0
-3525 -3527 0
-3525 -3528 0
-3526 -3527 0
-3526 -3528 0
-3527 -3528 0
-3529 -3530 0
-3529 -3531 0
-3529 -3532 0
-3530 -3531 0
-3530 -3532 0
-3531 -3532 0
-3533 -3534 0
-3533 -3535 0
-3533 -3536 0
-3534 -3535 0
-3534 -3536 0
-3535 -3536 0
-3537 -3538 0
-3537 -3539 0
-3537 -3540 0
-3538 -3539 0
-3538 -3540 0
-3539 -3540 0
-3541 -3542 0
-3541 -3543 0
-3541 -3544 0
-3542 -3543 0
-3542 -3544 0
-3543 -3544 0
-3545 -3546 0
-3545 -3547 0
-3545 -3548 0
-3546 -3547 0
-3546 -3548 0
-3547 -3548 0
-3549 -3550 0
-3549 -3551 0
-3549 -3552 0
-3550 -3551 0
-3550 -3552 0
-3551 -3552 0
-3553 -3554 0
-3553 -3555 0
-3553 -3556 0
-3554 -3555 0
-3554 -3556 0
-3555 -3556 0
-3557 -3558 0
-3557 -3559 0
-3557 -3560 0
-3558 -3559 0
-3558 -3560 0
-3559 -3560 0
-3561 -3562 0
-3561 -3563 0
-3561 -3564 0
-3562 -3563 0
-3562 -3564 0
-3563 -3564 0
-3565 -3566 0
-3565 -3567 0
-3565 -3568 0
-3566 -3567 0
-3566 -3568 0
-3567 -3568 0
-3569 -3570 0
-3569 -3571 0
-3569 -3572 0
-3570 -3571 0
-3570 -3572 0
-3571 -3572 0
-3573 -3574 0
-3573 -3575 0
-3573 -3576 0
-3574 -3575 0
-3574 -3576 0
-3575 -3576 0
-3577 -3578 0
-3577 -3579 0
-3577 -3580 0
-3578 -3579 0
-3578 -3580 0
-3579 -3580 0
-3581 -3582 0
-3581 -3583 0
-3581 -3584 0
-3582 -3583 0
-3582 -3584 0
-3583 -3584 0
-3585 -3586 0
-3585 -3587 0
-3585 -3588 0
-3586 -3587 0
-3586 -3588 0
-3587 -3588 0
-3589 -3590 0
-3589 -3591 0
-3589 -3592 0
-3590 -3591 0
-3590 -3592 0
-3591 -3592 0
-3593 -3594 0
-3593 -3595 0
-3593 -3596 0
-3594 -3595 0
-3594 -3596 0
-3595 -3596 0
-3597 -3598 0
-3597 -3599 0
-3597 -3600 0
-3598 -3599 0
-3598 -3600 0
-3599 -3600 0
-3601 -3602 0
-3601 -3603 0
-3601 -3604 0
-3602 -3603 0
-3602 -3604 0
-3603 -3604 0
-3605 -3606 0
-3605 -3607 0
-3605 -3608 0
-3606 -3607 0
-3606 -3608 0
-3607 -3608 0
-3609 -3610 0
-3609 -3611 0
-3609 -3612 0
-3610 -3611 0
-3610 -3612 0
-3611 -3612 0
-3613 -3614 0
-3613 -3615 0
-3613 -3616 0
-3614 -3615 0
-3614 -3616 0
-3615 -3616 0
-3617 -3618 0
-3617 -3619 0
-3617 -3620 0
-3618 -3619 0
-3618 -3620 0
-3619 -3620 0
-3621 -3622 0
-3621 -3623 0
-3621 -3624 0
-3622 -3623 0
-3622 -3624 0
-3623 -3624 0
-3625 -3626 0
-3625 -3627 0
-3625 -3628 0
-3626 -3627 0
-3626 -3628 0
-3627 -3628 0
-3629 -3630 0
-3629 -3631 0
-3629 -3632 0
-3630 -3631 0
-3630 -3632 0
-3631 -3632 0
-3633 -3634 0
-3633 -3635 0
-3633 -3636 0
-3634 -3635 0
-3634 -3636 0
-3635 -3636 0
-3637 -3638 0
-3637 -3639 0
-3637 -3640 0
-3638 -3639 0
-3638 -3640 0
-3639 -3640 0
-3641 -3642 0
-3641 -3643 0
-3641 -3644 0
-3642 -3643 0
-3642 -3644 0
-3643 -3644 0
-3645 -3646 0
-3645 -3647 0
-3645 -3648 0
-3646 -3647 0
-3646 -3648 0
-3647 -3648 0
-3649 -3650 0
-3649 -3651 0
-3649 -3652 0
-3650 -3651 0
-3650 -3652 0
-3651 -3652 0
-3653 -3654 0
-3653 -3655 0
-3653 -3656 0
-3654 -3655 0
-3654 -3656 0
-3655 -3656 0
-3657 -3658 0
-3657 -3659 0
-3657 -3660 0
-3658 -3659 0
-3658 -3660 0
-3659 -3660 0
-3661 -3662 0
-3661 -3663 0
-3661 -3664 0
-3662 -3663 0
-3662 -3664 0
-3663 -3664 0
-3665 -3666 0
-3665 -3667 0
-3665 -3668 0
-3666 -3667 0
-3666 -3668 0
-3667 -3668 0
-3669 -3670 0
-3669 -3671 0
-3669 -3672 0
-3670 -3671 0
-3670 -3672 0
-3671 -3672 0
-3673 -3674 0
-3673 -3675 0
-3673 -3676 0
-3674 -3675 0
-3674 -3676 0
-3675 -3676 0
-3677 -3678 0
-3677 -3679 0
-3677 -3680 0
-3678 -3679 0
-3678 -3680 0
-3679 -3680 0
-3681 -3682 0
-3681 -3683 0
-3681 -3684 0
-3682 -3683 0
-3682 -3684 0
-3683 -3684 0
-3685 -3686 0
-3685 -3687 0
-3685 -3688 0
-3686 -3687 0
-3686 -3688 0
-3687 -3688 0
-3689 -3690 0
-3689 -3691 0
-3689 -3692 0
-3690 -3691 0
-3690 -3692 0
-3691 -3692 0
-3693 -3694 0
-3693 -3695 0
-3693 -3696 0
-3694 -3695 0
-3694 -3696 0
-3695 -3696 0
-3697 -3698 0
-3697 -3699 0
-3697 -3700 0
-3698 -3699 0
-3698 -3700 0
-3699 -3700 0
-3701 -3702 0
-3701 -3703 0
-3701 -3704 0
-3702 -3703 0
-3702 -3704 0
-3703 -3704 0
-3705 -3706 0
-3705 -3707 0
-3705 -3708 0
-3706 -3707 0
-3706 -3708 0
-3707 -3708 0
-3709 -3710 0
-3709 -3711 0
-3709 -3712 0
-3710 -3711 0
-3710 -3712 0
-3711 -3712 0
-3713 -3714 0
-3713 -3715 0
-3713 -3716 0
-3714 -3715 0
-3714 -3716 0
-3715 -3716 0
-3717 -3718 0
-3717 -3719 0
-3717 -3720 0
-3718 -3719 0
-3718 -3720 0
-3719 -3720 0
-3721 -3722 0
-3721 -3723 0
-3721 -3724 0
-3722 -3723 0
-3722 -3724 0
-3723 -3724 0
-3725 -3726 0
-3725 -3727 0
-3725 -3728 0
-3726 -3727 0
-3726 -3728 0
-3727 -3728 0
-3729 -3730 0
-3729 -3731 0
-3729 -3732 0
-3730 -3731 0
-3730 -3732 0
-3731 -3732 0
-3733 -3734 0
-3733 -3735 0
-3733 -3736 0
-3734 -3735 0
-3734 -3736 0
-3735 -3736 0
-3737 -3738 0
-3737 -3739 0
-3737 -3740 0
-3738 -3739 0
-3738 -3740 0
-3739 -3740 0
-3741 -3742 0
-3741 -3743 0
-3741 -3744 0
-3742 -3743 0
-3742 -3744 0
-3743 -3744 0
-3745 -3746 0
-3745 -3747 0
-3745 -3748 0
-3746 -3747 0
-3746 -3748 0
-3747 -3748 0
-3749 -3750 0
-3749 -3751 0
-3749 -3752 0
-3750 -3751 0
-3750 -3752 0
-3751 -3752 0
-3753 -3754 0
-3753 -3755 0
-3753 -3756 0
-3754 -3755 0
-3754 -3756 0
-3755 -3756 0
-3757 -3758 0
-3757 -3759 0
-3757 -3760 0
-3758 -3759 0
-3758 -3760 0
-3759 -3760 0
-3761 -3762 0
-3761 -3763 0
-3761 -3764 0
-3762 -3763 0
-3762 -3764 0
-3763 -3764 0
-3765 -3766 0
-3765 -3767 0
-3765 -3768 0
-3766 -3767 0
-3766 -3768 0
-3767 -3768 0
-3769 -3770 0
-3769 -3771 0
-3769 -3772 0
-3770 -3771 0
-3770 -3772 0
-3771 -3772 0
-3773 -3774 0
-3773 -3775 0
-3773 -3776 0
-3774 -3775 0
-3774 -3776 0
-3775 -3776 0
-3777 -3778 0
-3777 -3779 0
-3777 -3780 0
-3778 -3779 0
-3778 -3780 0
-3779 -3780 0
-3781 -3782 0
-3781 -3783 0
-3781 -3784 0
-3782 -3783 0
-3782 -3784 0
-3783 -3784 0
-3785 -3786 0
-3785 -3787 0
-3785 -3788 0
-3786 -3787 0
-3786 -3788 0
-3787 -3788 0
-3789 -3790 0
-3789 -3791 0
-3789 -3792 0
-3790 -3791 0
-3790 -3792 0
-3791 -3792 0
-3793 -3794 0
-3793 -3795 0
-3793 -3796 0
-3794 -3795 0
-3794 -3796 0
-3795 -3796 0
-3797 -3798 0
-3797 -3799 0
-3797 -3800 0
-3798 -3799 0
-3798 -3800 0
-3799 -3800 0
-3801 -3802 0
-3801 -3803 0
-3801 -3804 0
-3802 -3803 0
-3802 -3804 0
-3803 -3804 0
-3805 -3806 0
-3805 -3807 0
-3805 -3808 0
-3806 -3807 0
-3806 -3808 0
-3807 -3808 0
-3809 -3810 0
-3809 -3811 0
-3809 -3812 0
-3810 -3811 0
-3810 -3812 0
-3811 -3812 0
-3813 -3814 0
-3813 -3815 0
-3813 -3816 0
-3814 -3815 0
-3814 -3816 0
-3815 -3816 0
-3817 -3818 0
-3817 -3819 0
-3817 -3820 0
-3818 -3819 0
-3818 -3820 0
-3819 -3820 0
-3821 -3822 0
-3821 -3823 0
-3821 -3824 0
-3822 -3823 0
-3822 -3824 0
-3823 -3824 0
-3825 -3826 0
-3825 -3827 0
-3825 -3828 0
-3826 -3827 0
-3826 -3828 0
-3827 -3828 0
-3829 -3830 0
-3829 -3831 0
-3829 -3832 0
-3830 -3831 0
-3830 -3832 0
-3831 -3832 0
-3833 -3834 0
-3833 -3835 0
-3833 -3836 0
-3834 -3835 0
-3834 -3836 0
-3835 -3836 0
-3837 -3838 0
-3837 -3839 0
-3837 -3840 0
-3838 -3839 0
-3838 -3840 0
-3839 -3840 0
-3841 -3842 0
-3841 -3843 0
-3841 -3844 0
-3842 -3843 0
-3842 -3844 0
-3843 -3844 0
1 0
498 0
