p cnf 924 5371
1 2 3 4 0
5 6 7 8 0
9 10 11 12 0
13 14 15 16 0
17 18 19 20 0
21 22 23 24 0
25 26 27 28 0
29 30 31 32 0
33 34 35 36 0
37 38 39 40 0
41 42 43 44 0
45 46 47 48 0
49 50 51 52 0
53 54 55 56 0
57 58 59 60 0
61 62 63 64 0
65 66 67 68 0
69 70 71 72 0
73 74 75 76 0
77 78 79 80 0
81 82 83 84 0
85 86 87 88 0
89 90 91 92 0
93 94 95 96 0
97 98 99 100 0
101 102 103 104 0
105 106 107 108 0
109 110 111 112 0
113 114 115 116 0
117 118 119 120 0
121 122 123 124 0
125 126 127 128 0
129 130 131 132 0
133 134 135 136 0
137 138 139 140 0
141 142 143 144 0
145 146 147 148 0
149 150 151 152 0
153 154 155 156 0
157 158 159 160 0
161 162 163 164 0
165 166 167 168 0
169 170 171 172 0
173 174 175 176 0
177 178 179 180 0
181 182 183 184 0
185 186 187 188 0
189 190 191 192 0
193 194 195 196 0
197 198 199 200 0
201 202 203 204 0
205 206 207 208 0
209 210 211 212 0
213 214 215 216 0
217 218 219 220 0
221 222 223 224 0
225 226 227 228 0
229 230 231 232 0
233 234 235 236 0
237 238 239 240 0
241 242 243 244 0
245 246 247 248 0
249 250 251 252 0
253 254 255 256 0
257 258 259 260 0
261 262 263 264 0
265 266 267 268 0
269 270 271 272 0
273 274 275 276 0
277 278 279 280 0
281 282 283 284 0
285 286 287 288 0
289 290 291 292 0
293 294 295 296 0
297 298 299 300 0
301 302 303 304 0
305 306 307 308 0
309 310 311 312 0
313 314 315 316 0
317 318 319 320 0
321 322 323 324 0
325 326 327 328 0
329 330 331 332 0
333 334 335 336 0
337 338 339 340 0
341 342 343 344 0
345 346 347 348 0
349 350 351 352 0
353 354 355 356 0
357 358 359 360 0
361 362 363 364 0
365 366 367 368 0
369 370 371 372 0
373 374 375 376 0
377 378 379 380 0
381 382 383 384 0
385 386 387 388 0
389 390 391 392 0
393 394 395 396 0
397 398 399 400 0
401 402 403 404 0
405 406 407 408 0
409 410 411 412 0
413 414 415 416 0
417 418 419 420 0
421 422 423 424 0
425 426 427 428 0
429 430 431 432 0
433 434 435 436 0
437 438 439 440 0
441 442 443 444 0
445 446 447 448 0
449 450 451 452 0
453 454 455 456 0
457 458 459 460 0
461 462 463 464 0
465 466 467 468 0
469 470 471 472 0
473 474 475 476 0
477 478 479 480 0
481 482 483 484 0
485 486 487 488 0
489 490 491 492 0
493 494 495 496 0
497 498 499 500 0
501 502 503 504 0
505 506 507 508 0
509 510 511 512 0
513 514 515 516 0
517 518 519 520 0
521 522 523 524 0
525 526 527 528 0
529 530 531 532 0
533 534 535 536 0
537 538 539 540 0
541 542 543 544 0
545 546 547 548 0
549 550 551 552 0
553 554 555 556 0
557 558 559 560 0
561 562 563 564 0
565 566 567 568 0
569 570 571 572 0
573 574 575 576 0
577 578 579 580 0
581 582 583 584 0
585 586 587 588 0
589 590 591 592 0
593 594 595 596 0
597 598 599 600 0
601 602 603 604 0
605 606 607 608 0
609 610 611 612 0
613 614 615 616 0
617 618 619 620 0
621 622 623 624 0
625 626 627 628 0
629 630 631 632 0
633 634 635 636 0
637 638 639 640 0
641 642 643 644 0
645 646 647 648 0
649 650 651 652 0
653 654 655 656 0
657 658 659 660 0
661 662 663 664 0
665 666 667 668 0
669 670 671 672 0
673 674 675 676 0
677 678 679 680 0
681 682 683 684 0
685 686 687 688 0
689 690 691 692 0
693 694 695 696 0
697 698 699 700 0
701 702 703 704 0
705 706 707 708 0
709 710 711 712 0
713 714 715 716 0
717 718 719 720 0
721 722 723 724 0
725 726 727 728 0
729 730 731 732 0
733 734 735 736 0
737 738 739 740 0
741 742 743 744 0
745 746 747 748 0
749 750 751 752 0
753 754 755 756 0
757 758 759 760 0
761 762 763 764 0
765 766 767 768 0
769 770 771 772 0
773 774 775 776 0
777 778 779 780 0
781 782 783 784 0
785 786 787 788 0
789 790 791 792 0
793 794 795 796 0
797 798 799 800 0
801 802 803 804 0
805 806 807 808 0
809 810 811 812 0
813 814 815 816 0
817 818 819 820 0
821 822 823 824 0
825 826 827 828 0
829 830 831 832 0
833 834 835 836 0
837 838 839 840 0
841 842 843 844 0
845 846 847 848 0
849 850 851 852 0
853 854 855 856 0
857 858 859 860 0
861 862 863 864 0
865 866 867 868 0
869 870 871 872 0
873 874 875 876 0
877 878 879 880 0
881 882 883 884 0
885 886 887 888 0
889 890 891 892 0
893 894 895 896 0
897 898 899 900 0
901 902 903 904 0
905 906 907 908 0
909 910 911 912 0
913 914 915 916 0
917 918 919 920 0
921 922 923 924 0
-1 -9 0
-2 -10 0
-3 -11 0
-4 -12 0
-1 -13 0
-2 -14 0
-3 -15 0
-4 -16 0
-1 -29 0
-2 -30 0
-3 -31 0
-4 -32 0
-1 -37 0
-2 -38 0
-3 -39 0
-4 -40 0
-1 -45 0
-2 -46 0
-3 -47 0
-4 -48 0
-1 -61 0
-2 -62 0
-3 -63 0
-4 -64 0
-1 -113 0
-2 -114 0
-3 -115 0
-4 -116 0
-1 -233 0
-2 -234 0
-3 -235 0
-4 -236 0
-1 -293 0
-2 -294 0
-3 -295 0
-4 -296 0
-1 -313 0
-2 -314 0
-3 -315 0
-4 -316 0
-1 -317 0
-2 -318 0
-3 -319 0
-4 -320 0
-1 -437 0
-2 -438 0
-3 -439 0
-4 -440 0
-1 -457 0
-2 -458 0
-3 -459 0
-4 -460 0
-1 -489 0
-2 -490 0
-3 -491 0
-4 -492 0
-1 -513 0
-2 -514 0
-3 -515 0
-4 -516 0
-1 -585 0
-2 -586 0
-3 -587 0
-4 -588 0
-1 -665 0
-2 -666 0
-3 -667 0
-4 -668 0
-1 -741 0
-2 -742 0
-3 -743 0
-4 -744 0
-1 -753 0
-2 -754 0
-3 -755 0
-4 -756 0
-1 -845 0
-2 -846 0
-3 -847 0
-4 -848 0
-1 -881 0
-2 -882 0
-3 -883 0
-4 -884 0
-1 -909 0
-2 -910 0
-3 -911 0
-4 -912 0
-5 -17 0
-6 -18 0
-7 -19 0
-8 -20 0
-5 -21 0
-6 -22 0
-7 -23 0
-8 -24 0
-5 -25 0
-6 -26 0
-7 -27 0
-8 -28 0
-5 -33 0
-6 -34 0
-7 -35 0
-8 -36 0
-5 -41 0
-6 -42 0
-7 -43 0
-8 -44 0
-5 -153 0
-6 -154 0
-7 -155 0
-8 -156 0
-5 -277 0
-6 -278 0
-7 -279 0
-8 -280 0
-5 -381 0
-6 -382 0
-7 -383 0
-8 -384 0
-5 -385 0
-6 -386 0
-7 -387 0
-8 -388 0
-5 -413 0
-6 -414 0
-7 -415 0
-8 -416 0
-5 -429 0
-6 -430 0
-7 -431 0
-8 -432 0
-5 -553 0
-6 -554 0
-7 -555 0
-8 -556 0
-5 -561 0
-6 -562 0
-7 -563 0
-8 -564 0
-5 -609 0
-6 -610 0
-7 -611 0
-8 -612 0
-5 -621 0
-6 -622 0
-7 -623 0
-8 -624 0
-5 -681 0
-6 -682 0
-7 -683 0
-8 -684 0
-5 -709 0
-6 -710 0
-7 -711 0
-8 -712 0
-5 -721 0
-6 -722 0
-7 -723 0
-8 -724 0
-5 -801 0
-6 -802 0
-7 -803 0
-8 -804 0
-5 -829 0
-6 -830 0
-7 -831 0
-8 -832 0
-5 -901 0
-6 -902 0
-7 -903 0
-8 -904 0
-9 -21 0
-10 -22 0
-11 -23 0
-12 -24 0
-9 -29 0
-10 -30 0
-11 -31 0
-12 -32 0
-9 -33 0
-10 -34 0
-11 -35 0
-12 -36 0
-9 -37 0
-10 -38 0
-11 -39 0
-12 -40 0
-9 -85 0
-10 -86 0
-11 -87 0
-12 -88 0
-9 -89 0
-10 -90 0
-11 -91 0
-12 -92 0
-9 -97 0
-10 -98 0
-11 -99 0
-12 -100 0
-9 -101 0
-10 -102 0
-11 -103 0
-12 -104 0
-9 -105 0
-10 -106 0
-11 -107 0
-12 -108 0
-9 -237 0
-10 -238 0
-11 -239 0
-12 -240 0
-9 -305 0
-10 -306 0
-11 -307 0
-12 -308 0
-9 -333 0
-10 -334 0
-11 -335 0
-12 -336 0
-9 -389 0
-10 -390 0
-11 -391 0
-12 -392 0
-9 -433 0
-10 -434 0
-11 -435 0
-12 -436 0
-9 -445 0
-10 -446 0
-11 -447 0
-12 -448 0
-9 -505 0
-10 -506 0
-11 -507 0
-12 -508 0
-9 -569 0
-10 -570 0
-11 -571 0
-12 -572 0
-9 -573 0
-10 -574 0
-11 -575 0
-12 -576 0
-9 -657 0
-10 -658 0
-11 -659 0
-12 -660 0
-9 -745 0
-10 -746 0
-11 -747 0
-12 -748 0
-9 -757 0
-10 -758 0
-11 -759 0
-12 -760 0
-9 -833 0
-10 -834 0
-11 -835 0
-12 -836 0
-9 -849 0
-10 -850 0
-11 -851 0
-12 -852 0
-9 -889 0
-10 -890 0
-11 -891 0
-12 -892 0
-13 -17 0
-14 -18 0
-15 -19 0
-16 -20 0
-13 -25 0
-14 -26 0
-15 -27 0
-16 -28 0
-13 -29 0
-14 -30 0
-15 -31 0
-16 -32 0
-13 -45 0
-14 -46 0
-15 -47 0
-16 -48 0
-13 -49 0
-14 -50 0
-15 -51 0
-16 -52 0
-13 -93 0
-14 -94 0
-15 -95 0
-16 -96 0
-13 -241 0
-14 -242 0
-15 -243 0
-16 -244 0
-13 -309 0
-14 -310 0
-15 -311 0
-16 -312 0
-13 -345 0
-14 -346 0
-15 -347 0
-16 -348 0
-13 -357 0
-14 -358 0
-15 -359 0
-16 -360 0
-13 -473 0
-14 -474 0
-15 -475 0
-16 -476 0
-13 -509 0
-14 -510 0
-15 -511 0
-16 -512 0
-13 -537 0
-14 -538 0
-15 -539 0
-16 -540 0
-13 -581 0
-14 -582 0
-15 -583 0
-16 -584 0
-13 -669 0
-14 -670 0
-15 -671 0
-16 -672 0
-13 -701 0
-14 -702 0
-15 -703 0
-16 -704 0
-13 -705 0
-14 -706 0
-15 -707 0
-16 -708 0
-13 -813 0
-14 -814 0
-15 -815 0
-16 -816 0
-13 -885 0
-14 -886 0
-15 -887 0
-16 -888 0
-13 -913 0
-14 -914 0
-15 -915 0
-16 -916 0
-17 -25 0
-18 -26 0
-19 -27 0
-20 -28 0
-17 -41 0
-18 -42 0
-19 -43 0
-20 -44 0
-17 -45 0
-18 -46 0
-19 -47 0
-20 -48 0
-17 -69 0
-18 -70 0
-19 -71 0
-20 -72 0
-17 -81 0
-18 -82 0
-19 -83 0
-20 -84 0
-17 -117 0
-18 -118 0
-19 -119 0
-20 -120 0
-17 -121 0
-18 -122 0
-19 -123 0
-20 -124 0
-17 -125 0
-18 -126 0
-19 -127 0
-20 -128 0
-17 -161 0
-18 -162 0
-19 -163 0
-20 -164 0
-17 -321 0
-18 -322 0
-19 -323 0
-20 -324 0
-17 -353 0
-18 -354 0
-19 -355 0
-20 -356 0
-17 -393 0
-18 -394 0
-19 -395 0
-20 -396 0
-17 -405 0
-18 -406 0
-19 -407 0
-20 -408 0
-17 -557 0
-18 -558 0
-19 -559 0
-20 -560 0
-17 -565 0
-18 -566 0
-19 -567 0
-20 -568 0
-17 -617 0
-18 -618 0
-19 -619 0
-20 -620 0
-17 -625 0
-18 -626 0
-19 -627 0
-20 -628 0
-17 -633 0
-18 -634 0
-19 -635 0
-20 -636 0
-17 -689 0
-18 -690 0
-19 -691 0
-20 -692 0
-17 -761 0
-18 -762 0
-19 -763 0
-20 -764 0
-17 -765 0
-18 -766 0
-19 -767 0
-20 -768 0
-17 -793 0
-18 -794 0
-19 -795 0
-20 -796 0
-17 -917 0
-18 -918 0
-19 -919 0
-20 -920 0
-21 -33 0
-22 -34 0
-23 -35 0
-24 -36 0
-21 -37 0
-22 -38 0
-23 -39 0
-24 -40 0
-21 -41 0
-22 -42 0
-23 -43 0
-24 -44 0
-21 -53 0
-22 -54 0
-23 -55 0
-24 -56 0
-21 -77 0
-22 -78 0
-23 -79 0
-24 -80 0
-21 -225 0
-22 -226 0
-23 -227 0
-24 -228 0
-21 -285 0
-22 -286 0
-23 -287 0
-24 -288 0
-21 -377 0
-22 -378 0
-23 -379 0
-24 -380 0
-21 -421 0
-22 -422 0
-23 -423 0
-24 -424 0
-21 -481 0
-22 -482 0
-23 -483 0
-24 -484 0
-21 -485 0
-22 -486 0
-23 -487 0
-24 -488 0
-21 -529 0
-22 -530 0
-23 -531 0
-24 -532 0
-21 -613 0
-22 -614 0
-23 -615 0
-24 -616 0
-21 -653 0
-22 -654 0
-23 -655 0
-24 -656 0
-21 -733 0
-22 -734 0
-23 -735 0
-24 -736 0
-21 -769 0
-22 -770 0
-23 -771 0
-24 -772 0
-21 -785 0
-22 -786 0
-23 -787 0
-24 -788 0
-21 -797 0
-22 -798 0
-23 -799 0
-24 -800 0
-21 -921 0
-22 -922 0
-23 -923 0
-24 -924 0
-25 -29 0
-26 -30 0
-27 -31 0
-28 -32 0
-25 -33 0
-26 -34 0
-27 -35 0
-28 -36 0
-25 -65 0
-26 -66 0
-27 -67 0
-28 -68 0
-25 -141 0
-26 -142 0
-27 -143 0
-28 -144 0
-25 -149 0
-26 -150 0
-27 -151 0
-28 -152 0
-25 -165 0
-26 -166 0
-27 -167 0
-28 -168 0
-25 -169 0
-26 -170 0
-27 -171 0
-28 -172 0
-25 -181 0
-26 -182 0
-27 -183 0
-28 -184 0
-25 -189 0
-26 -190 0
-27 -191 0
-28 -192 0
-25 -201 0
-26 -202 0
-27 -203 0
-28 -204 0
-25 -369 0
-26 -370 0
-27 -371 0
-28 -372 0
-25 -425 0
-26 -426 0
-27 -427 0
-28 -428 0
-25 -449 0
-26 -450 0
-27 -451 0
-28 -452 0
-25 -465 0
-26 -466 0
-27 -467 0
-28 -468 0
-25 -497 0
-26 -498 0
-27 -499 0
-28 -500 0
-25 -597 0
-26 -598 0
-27 -599 0
-28 -600 0
-25 -649 0
-26 -650 0
-27 -651 0
-28 -652 0
-25 -749 0
-26 -750 0
-27 -751 0
-28 -752 0
-25 -821 0
-26 -822 0
-27 -823 0
-28 -824 0
-25 -841 0
-26 -842 0
-27 -843 0
-28 -844 0
-25 -857 0
-26 -858 0
-27 -859 0
-28 -860 0
-25 -869 0
-26 -870 0
-27 -871 0
-28 -872 0
-29 -33 0
-30 -34 0
-31 -35 0
-32 -36 0
-29 -173 0
-30 -174 0
-31 -175 0
-32 -176 0
-29 -193 0
-30 -194 0
-31 -195 0
-32 -196 0
-29 -205 0
-30 -206 0
-31 -207 0
-32 -208 0
-29 -297 0
-30 -298 0
-31 -299 0
-32 -300 0
-29 -337 0
-30 -338 0
-31 -339 0
-32 -340 0
-29 -341 0
-30 -342 0
-31 -343 0
-32 -344 0
-29 -349 0
-30 -350 0
-31 -351 0
-32 -352 0
-29 -361 0
-30 -362 0
-31 -363 0
-32 -364 0
-29 -461 0
-30 -462 0
-31 -463 0
-32 -464 0
-29 -517 0
-30 -518 0
-31 -519 0
-32 -520 0
-29 -521 0
-30 -522 0
-31 -523 0
-32 -524 0
-29 -525 0
-30 -526 0
-31 -527 0
-32 -528 0
-29 -577 0
-30 -578 0
-31 -579 0
-32 -580 0
-29 -697 0
-30 -698 0
-31 -699 0
-32 -700 0
-29 -737 0
-30 -738 0
-31 -739 0
-32 -740 0
-29 -825 0
-30 -826 0
-31 -827 0
-32 -828 0
-29 -897 0
-30 -898 0
-31 -899 0
-32 -900 0
-29 -905 0
-30 -906 0
-31 -907 0
-32 -908 0
-33 -73 0
-34 -74 0
-35 -75 0
-36 -76 0
-33 -145 0
-34 -146 0
-35 -147 0
-36 -148 0
-33 -177 0
-34 -178 0
-35 -179 0
-36 -180 0
-33 -197 0
-34 -198 0
-35 -199 0
-36 -200 0
-33 -209 0
-34 -210 0
-35 -211 0
-36 -212 0
-33 -213 0
-34 -214 0
-35 -215 0
-36 -216 0
-33 -365 0
-34 -366 0
-35 -367 0
-36 -368 0
-33 -373 0
-34 -374 0
-35 -375 0
-36 -376 0
-33 -417 0
-34 -418 0
-35 -419 0
-36 -420 0
-33 -469 0
-34 -470 0
-35 -471 0
-36 -472 0
-33 -493 0
-34 -494 0
-35 -495 0
-36 -496 0
-33 -501 0
-34 -502 0
-35 -503 0
-36 -504 0
-33 -601 0
-34 -602 0
-35 -603 0
-36 -604 0
-33 -605 0
-34 -606 0
-35 -607 0
-36 -608 0
-33 -693 0
-34 -694 0
-35 -695 0
-36 -696 0
-33 -817 0
-34 -818 0
-35 -819 0
-36 -820 0
-33 -837 0
-34 -838 0
-35 -839 0
-36 -840 0
-33 -853 0
-34 -854 0
-35 -855 0
-36 -856 0
-33 -893 0
-34 -894 0
-35 -895 0
-36 -896 0
-37 -41 0
-38 -42 0
-39 -43 0
-40 -44 0
-37 -45 0
-38 -46 0
-39 -47 0
-40 -48 0
-37 -57 0
-38 -58 0
-39 -59 0
-40 -60 0
-37 -137 0
-38 -138 0
-39 -139 0
-40 -140 0
-37 -185 0
-38 -186 0
-39 -187 0
-40 -188 0
-37 -217 0
-38 -218 0
-39 -219 0
-40 -220 0
-37 -229 0
-38 -230 0
-39 -231 0
-40 -232 0
-37 -245 0
-38 -246 0
-39 -247 0
-40 -248 0
-37 -253 0
-38 -254 0
-39 -255 0
-40 -256 0
-37 -265 0
-38 -266 0
-39 -267 0
-40 -268 0
-37 -289 0
-38 -290 0
-39 -291 0
-40 -292 0
-37 -441 0
-38 -442 0
-39 -443 0
-40 -444 0
-37 -541 0
-38 -542 0
-39 -543 0
-40 -544 0
-37 -545 0
-38 -546 0
-39 -547 0
-40 -548 0
-37 -593 0
-38 -594 0
-39 -595 0
-40 -596 0
-37 -641 0
-38 -642 0
-39 -643 0
-40 -644 0
-37 -645 0
-38 -646 0
-39 -647 0
-40 -648 0
-37 -685 0
-38 -686 0
-39 -687 0
-40 -688 0
-37 -725 0
-38 -726 0
-39 -727 0
-40 -728 0
-37 -789 0
-38 -790 0
-39 -791 0
-40 -792 0
-37 -861 0
-38 -862 0
-39 -863 0
-40 -864 0
-37 -873 0
-38 -874 0
-39 -875 0
-40 -876 0
-41 -45 0
-42 -46 0
-43 -47 0
-44 -48 0
-41 -129 0
-42 -130 0
-43 -131 0
-44 -132 0
-41 -249 0
-42 -250 0
-43 -251 0
-44 -252 0
-41 -257 0
-42 -258 0
-43 -259 0
-44 -260 0
-41 -269 0
-42 -270 0
-43 -271 0
-44 -272 0
-41 -281 0
-42 -282 0
-43 -283 0
-44 -284 0
-41 -325 0
-42 -326 0
-43 -327 0
-44 -328 0
-41 -329 0
-42 -330 0
-43 -331 0
-44 -332 0
-41 -397 0
-42 -398 0
-43 -399 0
-44 -400 0
-41 -477 0
-42 -478 0
-43 -479 0
-44 -480 0
-41 -549 0
-42 -550 0
-43 -551 0
-44 -552 0
-41 -629 0
-42 -630 0
-43 -631 0
-44 -632 0
-41 -661 0
-42 -662 0
-43 -663 0
-44 -664 0
-41 -677 0
-42 -678 0
-43 -679 0
-44 -680 0
-41 -713 0
-42 -714 0
-43 -715 0
-44 -716 0
-41 -777 0
-42 -778 0
-43 -779 0
-44 -780 0
-41 -781 0
-42 -782 0
-43 -783 0
-44 -784 0
-41 -805 0
-42 -806 0
-43 -807 0
-44 -808 0
-41 -809 0
-42 -810 0
-43 -811 0
-44 -812 0
-45 -109 0
-46 -110 0
-47 -111 0
-48 -112 0
-45 -133 0
-46 -134 0
-47 -135 0
-48 -136 0
-45 -157 0
-46 -158 0
-47 -159 0
-48 -160 0
-45 -221 0
-46 -222 0
-47 -223 0
-48 -224 0
-45 -261 0
-46 -262 0
-47 -263 0
-48 -264 0
-45 -273 0
-46 -274 0
-47 -275 0
-48 -276 0
-45 -301 0
-46 -302 0
-47 -303 0
-48 -304 0
-45 -401 0
-46 -402 0
-47 -403 0
-48 -404 0
-45 -409 0
-46 -410 0
-47 -411 0
-48 -412 0
-45 -453 0
-46 -454 0
-47 -455 0
-48 -456 0
-45 -533 0
-46 -534 0
-47 -535 0
-48 -536 0
-45 -589 0
-46 -590 0
-47 -591 0
-48 -592 0
-45 -637 0
-46 -638 0
-47 -639 0
-48 -640 0
-45 -673 0
-46 -674 0
-47 -675 0
-48 -676 0
-45 -717 0
-46 -718 0
-47 -719 0
-48 -720 0
-45 -729 0
-46 -730 0
-47 -731 0
-48 -732 0
-45 -773 0
-46 -774 0
-47 -775 0
-48 -776 0
-45 -865 0
-46 -866 0
-47 -867 0
-48 -868 0
-45 -877 0
-46 -878 0
-47 -879 0
-48 -880 0
-49 -289 0
-50 -290 0
-51 -291 0
-52 -292 0
-49 -433 0
-50 -434 0
-51 -435 0
-52 -436 0
-49 -445 0
-50 -446 0
-51 -447 0
-52 -448 0
-49 -685 0
-50 -686 0
-51 -687 0
-52 -688 0
-53 -77 0
-54 -78 0
-55 -79 0
-56 -80 0
-53 -93 0
-54 -94 0
-55 -95 0
-56 -96 0
-53 -225 0
-54 -226 0
-55 -227 0
-56 -228 0
-53 -241 0
-54 -242 0
-55 -243 0
-56 -244 0
-53 -369 0
-54 -370 0
-55 -371 0
-56 -372 0
-53 -405 0
-54 -406 0
-55 -407 0
-56 -408 0
-53 -449 0
-54 -450 0
-55 -451 0
-56 -452 0
-53 -689 0
-54 -690 0
-55 -691 0
-56 -692 0
-57 -169 0
-58 -170 0
-59 -171 0
-60 -172 0
-57 -181 0
-58 -182 0
-59 -183 0
-60 -184 0
-57 -229 0
-58 -230 0
-59 -231 0
-60 -232 0
-57 -289 0
-58 -290 0
-59 -291 0
-60 -292 0
-57 -337 0
-58 -338 0
-59 -339 0
-60 -340 0
-57 -417 0
-58 -418 0
-59 -419 0
-60 -420 0
-57 -693 0
-58 -694 0
-59 -695 0
-60 -696 0
-61 -113 0
-62 -114 0
-63 -115 0
-64 -116 0
-61 -153 0
-62 -154 0
-63 -155 0
-64 -156 0
-61 -313 0
-62 -314 0
-63 -315 0
-64 -316 0
-61 -417 0
-62 -418 0
-63 -419 0
-64 -420 0
-61 -421 0
-62 -422 0
-63 -423 0
-64 -424 0
-65 -149 0
-66 -150 0
-67 -151 0
-68 -152 0
-65 -185 0
-66 -186 0
-67 -187 0
-68 -188 0
-65 -253 0
-66 -254 0
-67 -255 0
-68 -256 0
-65 -369 0
-66 -370 0
-67 -371 0
-68 -372 0
-65 -397 0
-66 -398 0
-67 -399 0
-68 -400 0
-65 -409 0
-66 -410 0
-67 -411 0
-68 -412 0
-65 -453 0
-66 -454 0
-67 -455 0
-68 -456 0
-69 -161 0
-70 -162 0
-71 -163 0
-72 -164 0
-69 -177 0
-70 -178 0
-71 -179 0
-72 -180 0
-69 -297 0
-70 -298 0
-71 -299 0
-72 -300 0
-69 -305 0
-70 -306 0
-71 -307 0
-72 -308 0
-69 -333 0
-70 -334 0
-71 -335 0
-72 -336 0
-69 -405 0
-70 -406 0
-71 -407 0
-72 -408 0
-69 -697 0
-70 -698 0
-71 -699 0
-72 -700 0
-73 -157 0
-74 -158 0
-75 -159 0
-76 -160 0
-73 -177 0
-74 -178 0
-75 -179 0
-76 -180 0
-73 -313 0
-74 -314 0
-75 -315 0
-76 -316 0
-73 -417 0
-74 -418 0
-75 -419 0
-76 -420 0
-73 -457 0
-74 -458 0
-75 -459 0
-76 -460 0
-73 -701 0
-74 -702 0
-75 -703 0
-76 -704 0
-77 -93 0
-78 -94 0
-79 -95 0
-80 -96 0
-77 -165 0
-78 -166 0
-79 -167 0
-80 -168 0
-77 -345 0
-78 -346 0
-79 -347 0
-80 -348 0
-77 -421 0
-78 -422 0
-79 -423 0
-80 -424 0
-81 -85 0
-82 -86 0
-83 -87 0
-84 -88 0
-81 -89 0
-82 -90 0
-83 -91 0
-84 -92 0
-81 -125 0
-82 -126 0
-83 -127 0
-84 -128 0
-81 -321 0
-82 -322 0
-83 -323 0
-84 -324 0
-81 -361 0
-82 -362 0
-83 -363 0
-84 -364 0
-81 -365 0
-82 -366 0
-83 -367 0
-84 -368 0
-81 -461 0
-82 -462 0
-83 -463 0
-84 -464 0
-85 -89 0
-86 -90 0
-87 -91 0
-88 -92 0
-85 -141 0
-86 -142 0
-87 -143 0
-88 -144 0
-85 -321 0
-86 -322 0
-87 -323 0
-88 -324 0
-85 -433 0
-86 -434 0
-87 -435 0
-88 -436 0
-89 -125 0
-90 -126 0
-91 -127 0
-92 -128 0
-89 -165 0
-90 -166 0
-91 -167 0
-92 -168 0
-89 -237 0
-90 -238 0
-91 -239 0
-92 -240 0
-89 -465 0
-90 -466 0
-91 -467 0
-92 -468 0
-89 -709 0
-90 -710 0
-91 -711 0
-92 -712 0
-93 -241 0
-94 -242 0
-95 -243 0
-96 -244 0
-93 -345 0
-94 -346 0
-95 -347 0
-96 -348 0
-93 -365 0
-94 -366 0
-95 -367 0
-96 -368 0
-93 -429 0
-94 -430 0
-95 -431 0
-96 -432 0
-93 -469 0
-94 -470 0
-95 -471 0
-96 -472 0
-97 -101 0
-98 -102 0
-99 -103 0
-100 -104 0
-97 -117 0
-98 -118 0
-99 -119 0
-100 -120 0
-97 -121 0
-98 -122 0
-99 -123 0
-100 -124 0
-97 -325 0
-98 -326 0
-99 -327 0
-100 -328 0
-97 -389 0
-98 -390 0
-99 -391 0
-100 -392 0
-97 -401 0
-98 -402 0
-99 -403 0
-100 -404 0
-97 -713 0
-98 -714 0
-99 -715 0
-100 -716 0
-101 -121 0
-102 -122 0
-103 -123 0
-104 -124 0
-101 -161 0
-102 -162 0
-103 -163 0
-104 -164 0
-101 -305 0
-102 -306 0
-103 -307 0
-104 -308 0
-101 -309 0
-102 -310 0
-103 -311 0
-104 -312 0
-101 -473 0
-102 -474 0
-103 -475 0
-104 -476 0
-101 -717 0
-102 -718 0
-103 -719 0
-104 -720 0
-105 -237 0
-106 -238 0
-107 -239 0
-108 -240 0
-105 -261 0
-106 -262 0
-107 -263 0
-108 -264 0
-105 -281 0
-106 -282 0
-107 -283 0
-108 -284 0
-105 -353 0
-106 -354 0
-107 -355 0
-108 -356 0
-105 -393 0
-106 -394 0
-107 -395 0
-108 -396 0
-105 -433 0
-106 -434 0
-107 -435 0
-108 -436 0
-105 -477 0
-106 -478 0
-107 -479 0
-108 -480 0
-109 -197 0
-110 -198 0
-111 -199 0
-112 -200 0
-109 -225 0
-110 -226 0
-111 -227 0
-112 -228 0
-109 -261 0
-110 -262 0
-111 -263 0
-112 -264 0
-109 -373 0
-110 -374 0
-111 -375 0
-112 -376 0
-109 -381 0
-110 -382 0
-111 -383 0
-112 -384 0
-109 -409 0
-110 -410 0
-111 -411 0
-112 -412 0
-109 -481 0
-110 -482 0
-111 -483 0
-112 -484 0
-109 -721 0
-110 -722 0
-111 -723 0
-112 -724 0
-113 -281 0
-114 -282 0
-115 -283 0
-116 -284 0
-113 -285 0
-114 -286 0
-115 -287 0
-116 -288 0
-113 -385 0
-114 -386 0
-115 -387 0
-116 -388 0
-113 -437 0
-114 -438 0
-115 -439 0
-116 -440 0
-113 -485 0
-114 -486 0
-115 -487 0
-116 -488 0
-117 -121 0
-118 -122 0
-119 -123 0
-120 -124 0
-117 -217 0
-118 -218 0
-119 -219 0
-120 -220 0
-117 -225 0
-118 -226 0
-119 -227 0
-120 -228 0
-117 -389 0
-118 -390 0
-119 -391 0
-120 -392 0
-117 -405 0
-118 -406 0
-119 -407 0
-120 -408 0
-121 -161 0
-122 -162 0
-123 -163 0
-124 -164 0
-121 -245 0
-122 -246 0
-123 -247 0
-124 -248 0
-121 -437 0
-122 -438 0
-123 -439 0
-124 -440 0
-121 -489 0
-122 -490 0
-123 -491 0
-124 -492 0
-121 -725 0
-122 -726 0
-123 -727 0
-124 -728 0
-125 -237 0
-126 -238 0
-127 -239 0
-128 -240 0
-125 -353 0
-126 -354 0
-127 -355 0
-128 -356 0
-125 -373 0
-126 -374 0
-127 -375 0
-128 -376 0
-125 -377 0
-126 -378 0
-127 -379 0
-128 -380 0
-125 -493 0
-126 -494 0
-127 -495 0
-128 -496 0
-125 -733 0
-126 -734 0
-127 -735 0
-128 -736 0
-129 -281 0
-130 -282 0
-131 -283 0
-132 -284 0
-129 -341 0
-130 -342 0
-131 -343 0
-132 -344 0
-129 -349 0
-130 -350 0
-131 -351 0
-132 -352 0
-129 -397 0
-130 -398 0
-131 -399 0
-132 -400 0
-129 -437 0
-130 -438 0
-131 -439 0
-132 -440 0
-133 -145 0
-134 -146 0
-135 -147 0
-136 -148 0
-133 -149 0
-134 -150 0
-135 -151 0
-136 -152 0
-133 -173 0
-134 -174 0
-135 -175 0
-136 -176 0
-133 -301 0
-134 -302 0
-135 -303 0
-136 -304 0
-133 -365 0
-134 -366 0
-135 -367 0
-136 -368 0
-133 -409 0
-134 -410 0
-135 -411 0
-136 -412 0
-133 -497 0
-134 -498 0
-135 -499 0
-136 -500 0
-133 -737 0
-134 -738 0
-135 -739 0
-136 -740 0
-137 -141 0
-138 -142 0
-139 -143 0
-140 -144 0
-137 -165 0
-138 -166 0
-139 -167 0
-140 -168 0
-137 -205 0
-138 -206 0
-139 -207 0
-140 -208 0
-137 -209 0
-138 -210 0
-139 -211 0
-140 -212 0
-137 -265 0
-138 -266 0
-139 -267 0
-140 -268 0
-137 -441 0
-138 -442 0
-139 -443 0
-140 -444 0
-137 -501 0
-138 -502 0
-139 -503 0
-140 -504 0
-141 -149 0
-142 -150 0
-143 -151 0
-144 -152 0
-141 -165 0
-142 -166 0
-143 -167 0
-144 -168 0
-141 -265 0
-142 -266 0
-143 -267 0
-144 -268 0
-141 -313 0
-142 -314 0
-143 -315 0
-144 -316 0
-141 -505 0
-142 -506 0
-143 -507 0
-144 -508 0
-145 -209 0
-146 -210 0
-147 -211 0
-148 -212 0
-145 -301 0
-146 -302 0
-147 -303 0
-148 -304 0
-145 -317 0
-146 -318 0
-147 -319 0
-148 -320 0
-145 -345 0
-146 -346 0
-147 -347 0
-148 -348 0
-145 -365 0
-146 -366 0
-147 -367 0
-148 -368 0
-145 -509 0
-146 -510 0
-147 -511 0
-148 -512 0
-145 -741 0
-146 -742 0
-147 -743 0
-148 -744 0
-149 -185 0
-150 -186 0
-151 -187 0
-152 -188 0
-149 -265 0
-150 -266 0
-151 -267 0
-152 -268 0
-149 -293 0
-150 -294 0
-151 -295 0
-152 -296 0
-149 -513 0
-150 -514 0
-151 -515 0
-152 -516 0
-153 -193 0
-154 -194 0
-155 -195 0
-156 -196 0
-153 -313 0
-154 -314 0
-155 -315 0
-156 -316 0
-153 -333 0
-154 -334 0
-155 -335 0
-156 -336 0
-153 -429 0
-154 -430 0
-155 -431 0
-156 -432 0
-153 -517 0
-154 -518 0
-155 -519 0
-156 -520 0
-153 -745 0
-154 -746 0
-155 -747 0
-156 -748 0
-157 -177 0
-158 -178 0
-159 -179 0
-160 -180 0
-157 -273 0
-158 -274 0
-159 -275 0
-160 -276 0
-157 -341 0
-158 -342 0
-159 -343 0
-160 -344 0
-157 -425 0
-158 -426 0
-159 -427 0
-160 -428 0
-157 -521 0
-158 -522 0
-159 -523 0
-160 -524 0
-157 -749 0
-158 -750 0
-159 -751 0
-160 -752 0
-161 -173 0
-162 -174 0
-163 -175 0
-164 -176 0
-161 -293 0
-162 -294 0
-163 -295 0
-164 -296 0
-161 -305 0
-162 -306 0
-163 -307 0
-164 -308 0
-165 -369 0
-166 -370 0
-167 -371 0
-168 -372 0
-165 -441 0
-166 -442 0
-167 -443 0
-168 -444 0
-165 -529 0
-166 -530 0
-167 -531 0
-168 -532 0
-169 -181 0
-170 -182 0
-171 -183 0
-172 -184 0
-169 -289 0
-170 -290 0
-171 -291 0
-172 -292 0
-169 -305 0
-170 -306 0
-171 -307 0
-172 -308 0
-169 -317 0
-170 -318 0
-171 -319 0
-172 -320 0
-169 -425 0
-170 -426 0
-171 -427 0
-172 -428 0
-169 -757 0
-170 -758 0
-171 -759 0
-172 -760 0
-173 -269 0
-174 -270 0
-175 -271 0
-176 -272 0
-173 -297 0
-174 -298 0
-175 -299 0
-176 -300 0
-173 -533 0
-174 -534 0
-175 -535 0
-176 -536 0
-173 -761 0
-174 -762 0
-175 -763 0
-176 -764 0
-177 -273 0
-178 -274 0
-179 -275 0
-180 -276 0
-177 -765 0
-178 -766 0
-179 -767 0
-180 -768 0
-181 -201 0
-182 -202 0
-183 -203 0
-184 -204 0
-181 -229 0
-182 -230 0
-183 -231 0
-184 -232 0
-181 -333 0
-182 -334 0
-183 -335 0
-184 -336 0
-181 -769 0
-182 -770 0
-183 -771 0
-184 -772 0
-185 -253 0
-186 -254 0
-187 -255 0
-188 -256 0
-185 -265 0
-186 -266 0
-187 -267 0
-188 -268 0
-185 -357 0
-186 -358 0
-187 -359 0
-188 -360 0
-185 -393 0
-186 -394 0
-187 -395 0
-188 -396 0
-185 -537 0
-186 -538 0
-187 -539 0
-188 -540 0
-189 -201 0
-190 -202 0
-191 -203 0
-192 -204 0
-189 -217 0
-190 -218 0
-191 -219 0
-192 -220 0
-189 -245 0
-190 -246 0
-191 -247 0
-192 -248 0
-189 -269 0
-190 -270 0
-191 -271 0
-192 -272 0
-189 -273 0
-190 -274 0
-191 -275 0
-192 -276 0
-189 -425 0
-190 -426 0
-191 -427 0
-192 -428 0
-189 -773 0
-190 -774 0
-191 -775 0
-192 -776 0
-193 -205 0
-194 -206 0
-195 -207 0
-196 -208 0
-193 -249 0
-194 -250 0
-195 -251 0
-196 -252 0
-193 -257 0
-194 -258 0
-195 -259 0
-196 -260 0
-193 -361 0
-194 -362 0
-195 -363 0
-196 -364 0
-197 -209 0
-198 -210 0
-199 -211 0
-200 -212 0
-197 -261 0
-198 -262 0
-199 -263 0
-200 -264 0
-197 -329 0
-198 -330 0
-199 -331 0
-200 -332 0
-197 -373 0
-198 -374 0
-199 -375 0
-200 -376 0
-197 -441 0
-198 -442 0
-199 -443 0
-200 -444 0
-197 -541 0
-198 -542 0
-199 -543 0
-200 -544 0
-197 -777 0
-198 -778 0
-199 -779 0
-200 -780 0
-201 -217 0
-202 -218 0
-203 -219 0
-204 -220 0
-201 -229 0
-202 -230 0
-203 -231 0
-204 -232 0
-201 -377 0
-202 -378 0
-203 -379 0
-204 -380 0
-201 -781 0
-202 -782 0
-203 -783 0
-204 -784 0
-205 -257 0
-206 -258 0
-207 -259 0
-208 -260 0
-205 -281 0
-206 -282 0
-207 -283 0
-208 -284 0
-205 -349 0
-206 -350 0
-207 -351 0
-208 -352 0
-205 -545 0
-206 -546 0
-207 -547 0
-208 -548 0
-205 -785 0
-206 -786 0
-207 -787 0
-208 -788 0
-209 -261 0
-210 -262 0
-211 -263 0
-212 -264 0
-209 -301 0
-210 -302 0
-211 -303 0
-212 -304 0
-213 -221 0
-214 -222 0
-215 -223 0
-216 -224 0
-213 -229 0
-214 -230 0
-215 -231 0
-216 -232 0
-213 -257 0
-214 -258 0
-215 -259 0
-216 -260 0
-213 -401 0
-214 -402 0
-215 -403 0
-216 -404 0
-213 -417 0
-214 -418 0
-215 -419 0
-216 -420 0
-213 -549 0
-214 -550 0
-215 -551 0
-216 -552 0
-213 -789 0
-214 -790 0
-215 -791 0
-216 -792 0
-217 -229 0
-218 -230 0
-219 -231 0
-220 -232 0
-217 -245 0
-218 -246 0
-219 -247 0
-220 -248 0
-217 -381 0
-218 -382 0
-219 -383 0
-220 -384 0
-217 -793 0
-218 -794 0
-219 -795 0
-220 -796 0
-221 -273 0
-222 -274 0
-223 -275 0
-224 -276 0
-221 -385 0
-222 -386 0
-223 -387 0
-224 -388 0
-221 -401 0
-222 -402 0
-223 -403 0
-224 -404 0
-221 -553 0
-222 -554 0
-223 -555 0
-224 -556 0
-221 -797 0
-222 -798 0
-223 -799 0
-224 -800 0
-225 -241 0
-226 -242 0
-227 -243 0
-228 -244 0
-225 -285 0
-226 -286 0
-227 -287 0
-228 -288 0
-225 -357 0
-226 -358 0
-227 -359 0
-228 -360 0
-229 -277 0
-230 -278 0
-231 -279 0
-232 -280 0
-229 -801 0
-230 -802 0
-231 -803 0
-232 -804 0
-233 -381 0
-234 -382 0
-235 -383 0
-236 -384 0
-233 -393 0
-234 -394 0
-235 -395 0
-236 -396 0
-233 -557 0
-234 -558 0
-235 -559 0
-236 -560 0
-233 -805 0
-234 -806 0
-235 -807 0
-236 -808 0
-237 -257 0
-238 -258 0
-239 -259 0
-240 -260 0
-237 -277 0
-238 -278 0
-239 -279 0
-240 -280 0
-237 -353 0
-238 -354 0
-239 -355 0
-240 -356 0
-241 -269 0
-242 -270 0
-243 -271 0
-244 -272 0
-241 -357 0
-242 -358 0
-243 -359 0
-244 -360 0
-241 -413 0
-242 -414 0
-243 -415 0
-244 -416 0
-241 -561 0
-242 -562 0
-243 -563 0
-244 -564 0
-241 -809 0
-242 -810 0
-243 -811 0
-244 -812 0
-245 -289 0
-246 -290 0
-247 -291 0
-248 -292 0
-245 -425 0
-246 -426 0
-247 -427 0
-248 -428 0
-245 -813 0
-246 -814 0
-247 -815 0
-248 -816 0
-249 -257 0
-250 -258 0
-251 -259 0
-252 -260 0
-249 -361 0
-250 -362 0
-251 -363 0
-252 -364 0
-249 -369 0
-250 -370 0
-251 -371 0
-252 -372 0
-249 -397 0
-250 -398 0
-251 -399 0
-252 -400 0
-253 -353 0
-254 -354 0
-255 -355 0
-256 -356 0
-253 -369 0
-254 -370 0
-255 -371 0
-256 -372 0
-253 -385 0
-254 -386 0
-255 -387 0
-256 -388 0
-253 -441 0
-254 -442 0
-255 -443 0
-256 -444 0
-253 -565 0
-254 -566 0
-255 -567 0
-256 -568 0
-257 -281 0
-258 -282 0
-259 -283 0
-260 -284 0
-257 -569 0
-258 -570 0
-259 -571 0
-260 -572 0
-257 -817 0
-258 -818 0
-259 -819 0
-260 -820 0
-261 -285 0
-262 -286 0
-263 -287 0
-264 -288 0
-261 -301 0
-262 -302 0
-263 -303 0
-264 -304 0
-261 -573 0
-262 -574 0
-263 -575 0
-264 -576 0
-265 -309 0
-266 -310 0
-267 -311 0
-268 -312 0
-265 -349 0
-266 -350 0
-267 -351 0
-268 -352 0
-265 -577 0
-266 -578 0
-267 -579 0
-268 -580 0
-269 -297 0
-270 -298 0
-271 -299 0
-272 -300 0
-269 -581 0
-270 -582 0
-271 -583 0
-272 -584 0
-269 -821 0
-270 -822 0
-271 -823 0
-272 -824 0
-273 -413 0
-274 -414 0
-275 -415 0
-276 -416 0
-277 -381 0
-278 -382 0
-279 -383 0
-280 -384 0
-281 -349 0
-282 -350 0
-283 -351 0
-284 -352 0
-281 -585 0
-282 -586 0
-283 -587 0
-284 -588 0
-285 -309 0
-286 -310 0
-287 -311 0
-288 -312 0
-285 -357 0
-286 -358 0
-287 -359 0
-288 -360 0
-285 -421 0
-286 -422 0
-287 -423 0
-288 -424 0
-285 -589 0
-286 -590 0
-287 -591 0
-288 -592 0
-289 -425 0
-290 -426 0
-291 -427 0
-292 -428 0
-289 -825 0
-290 -826 0
-291 -827 0
-292 -828 0
-293 -313 0
-294 -314 0
-295 -315 0
-296 -316 0
-293 -413 0
-294 -414 0
-295 -415 0
-296 -416 0
-293 -429 0
-294 -430 0
-295 -431 0
-296 -432 0
-293 -437 0
-294 -438 0
-295 -439 0
-296 -440 0
-297 -829 0
-298 -830 0
-299 -831 0
-300 -832 0
-301 -433 0
-302 -434 0
-303 -435 0
-304 -436 0
-305 -333 0
-306 -334 0
-307 -335 0
-308 -336 0
-305 -345 0
-306 -346 0
-307 -347 0
-308 -348 0
-309 -345 0
-310 -346 0
-311 -347 0
-312 -348 0
-309 -357 0
-310 -358 0
-311 -359 0
-312 -360 0
-309 -421 0
-310 -422 0
-311 -423 0
-312 -424 0
-309 -593 0
-310 -594 0
-311 -595 0
-312 -596 0
-309 -833 0
-310 -834 0
-311 -835 0
-312 -836 0
-313 -429 0
-314 -430 0
-315 -431 0
-316 -432 0
-313 -597 0
-314 -598 0
-315 -599 0
-316 -600 0
-313 -837 0
-314 -838 0
-315 -839 0
-316 -840 0
-317 -601 0
-318 -602 0
-319 -603 0
-320 -604 0
-317 -841 0
-318 -842 0
-319 -843 0
-320 -844 0
-321 -341 0
-322 -342 0
-323 -343 0
-324 -344 0
-321 -393 0
-322 -394 0
-323 -395 0
-324 -396 0
-321 -433 0
-322 -434 0
-323 -435 0
-324 -436 0
-325 -329 0
-326 -330 0
-327 -331 0
-328 -332 0
-325 -337 0
-326 -338 0
-327 -339 0
-328 -340 0
-325 -845 0
-326 -846 0
-327 -847 0
-328 -848 0
-329 -337 0
-330 -338 0
-331 -339 0
-332 -340 0
-329 -389 0
-330 -390 0
-331 -391 0
-332 -392 0
-329 -605 0
-330 -606 0
-331 -607 0
-332 -608 0
-329 -849 0
-330 -850 0
-331 -851 0
-332 -852 0
-333 -389 0
-334 -390 0
-335 -391 0
-336 -392 0
-333 -405 0
-334 -406 0
-335 -407 0
-336 -408 0
-333 -609 0
-334 -610 0
-335 -611 0
-336 -612 0
-333 -857 0
-334 -858 0
-335 -859 0
-336 -860 0
-337 -421 0
-338 -422 0
-339 -423 0
-340 -424 0
-337 -613 0
-338 -614 0
-339 -615 0
-340 -616 0
-337 -861 0
-338 -862 0
-339 -863 0
-340 -864 0
-341 -349 0
-342 -350 0
-343 -351 0
-344 -352 0
-341 -361 0
-342 -362 0
-343 -363 0
-344 -364 0
-341 -397 0
-342 -398 0
-343 -399 0
-344 -400 0
-341 -617 0
-342 -618 0
-343 -619 0
-344 -620 0
-341 -865 0
-342 -866 0
-343 -867 0
-344 -868 0
-345 -421 0
-346 -422 0
-347 -423 0
-348 -424 0
-353 -393 0
-354 -394 0
-355 -395 0
-356 -396 0
-361 -397 0
-362 -398 0
-363 -399 0
-364 -400 0
-361 -429 0
-362 -430 0
-363 -431 0
-364 -432 0
-361 -621 0
-362 -622 0
-363 -623 0
-364 -624 0
-365 -373 0
-366 -374 0
-367 -375 0
-368 -376 0
-365 -409 0
-366 -410 0
-367 -411 0
-368 -412 0
-365 -625 0
-366 -626 0
-367 -627 0
-368 -628 0
-369 -441 0
-370 -442 0
-371 -443 0
-372 -444 0
-369 -629 0
-370 -630 0
-371 -631 0
-372 -632 0
-373 -409 0
-374 -410 0
-375 -411 0
-376 -412 0
-377 -633 0
-378 -634 0
-379 -635 0
-380 -636 0
-377 -869 0
-378 -870 0
-379 -871 0
-380 -872 0
-381 -637 0
-382 -638 0
-383 -639 0
-384 -640 0
-381 -873 0
-382 -874 0
-383 -875 0
-384 -876 0
-385 -413 0
-386 -414 0
-387 -415 0
-388 -416 0
-385 -437 0
-386 -438 0
-387 -439 0
-388 -440 0
-385 -641 0
-386 -642 0
-387 -643 0
-388 -644 0
-385 -877 0
-386 -878 0
-387 -879 0
-388 -880 0
-389 -405 0
-390 -406 0
-391 -407 0
-392 -408 0
-393 -433 0
-394 -434 0
-395 -435 0
-396 -436 0
-393 -645 0
-394 -646 0
-395 -647 0
-396 -648 0
-393 -881 0
-394 -882 0
-395 -883 0
-396 -884 0
-397 -649 0
-398 -650 0
-399 -651 0
-400 -652 0
-397 -885 0
-398 -886 0
-399 -887 0
-400 -888 0
-401 -417 0
-402 -418 0
-403 -419 0
-404 -420 0
-401 -889 0
-402 -890 0
-403 -891 0
-404 -892 0
-405 -653 0
-406 -654 0
-407 -655 0
-408 -656 0
-405 -893 0
-406 -894 0
-407 -895 0
-408 -896 0
-413 -429 0
-414 -430 0
-415 -431 0
-416 -432 0
-413 -437 0
-414 -438 0
-415 -439 0
-416 -440 0
-421 -665 0
-422 -666 0
-423 -667 0
-424 -668 0
-421 -905 0
-422 -906 0
-423 -907 0
-424 -908 0
-425 -909 0
-426 -910 0
-427 -911 0
-428 -912 0
-429 -669 0
-430 -670 0
-431 -671 0
-432 -672 0
-433 -673 0
-434 -674 0
-435 -675 0
-436 -676 0
-433 -913 0
-434 -914 0
-435 -915 0
-436 -916 0
-437 -677 0
-438 -678 0
-439 -679 0
-440 -680 0
-437 -917 0
-438 -918 0
-439 -919 0
-440 -920 0
-441 -681 0
-442 -682 0
-443 -683 0
-444 -684 0
-445 -505 0
-446 -506 0
-447 -507 0
-448 -508 0
-445 -557 0
-446 -558 0
-447 -559 0
-448 -560 0
-445 -573 0
-446 -574 0
-447 -575 0
-448 -576 0
-445 -617 0
-446 -618 0
-447 -619 0
-448 -620 0
-445 -685 0
-446 -686 0
-447 -687 0
-448 -688 0
-449 -465 0
-450 -466 0
-451 -467 0
-452 -468 0
-449 -541 0
-450 -542 0
-451 -543 0
-452 -544 0
-449 -641 0
-450 -642 0
-451 -643 0
-452 -644 0
-449 -649 0
-450 -650 0
-451 -651 0
-452 -652 0
-449 -689 0
-450 -690 0
-451 -691 0
-452 -692 0
-449 -769 0
-450 -770 0
-451 -771 0
-452 -772 0
-453 -469 0
-454 -470 0
-455 -471 0
-456 -472 0
-453 -493 0
-454 -494 0
-455 -495 0
-456 -496 0
-453 -533 0
-454 -534 0
-455 -535 0
-456 -536 0
-453 -637 0
-454 -638 0
-455 -639 0
-456 -640 0
-453 -749 0
-454 -750 0
-455 -751 0
-456 -752 0
-457 -513 0
-458 -514 0
-459 -515 0
-460 -516 0
-457 -609 0
-458 -610 0
-459 -611 0
-460 -612 0
-457 -621 0
-458 -622 0
-459 -623 0
-460 -624 0
-457 -665 0
-458 -666 0
-459 -667 0
-460 -668 0
-457 -701 0
-458 -702 0
-459 -703 0
-460 -704 0
-461 -517 0
-462 -518 0
-463 -519 0
-464 -520 0
-461 -521 0
-462 -522 0
-463 -523 0
-464 -524 0
-461 -629 0
-462 -630 0
-463 -631 0
-464 -632 0
-461 -661 0
-462 -662 0
-463 -663 0
-464 -664 0
-461 -761 0
-462 -762 0
-463 -763 0
-464 -764 0
-465 -541 0
-466 -542 0
-467 -543 0
-468 -544 0
-465 -545 0
-466 -546 0
-467 -547 0
-468 -548 0
-465 -597 0
-466 -598 0
-467 -599 0
-468 -600 0
-465 -709 0
-466 -710 0
-467 -711 0
-468 -712 0
-465 -757 0
-466 -758 0
-467 -759 0
-468 -760 0
-469 -493 0
-470 -494 0
-471 -495 0
-472 -496 0
-469 -533 0
-470 -534 0
-471 -535 0
-472 -536 0
-469 -601 0
-470 -602 0
-471 -603 0
-472 -604 0
-469 -701 0
-470 -702 0
-471 -703 0
-472 -704 0
-473 -485 0
-474 -486 0
-475 -487 0
-476 -488 0
-473 -509 0
-474 -510 0
-475 -511 0
-476 -512 0
-473 -537 0
-474 -538 0
-475 -539 0
-476 -540 0
-473 -613 0
-474 -614 0
-475 -615 0
-476 -616 0
-473 -717 0
-474 -718 0
-475 -719 0
-476 -720 0
-477 -525 0
-478 -526 0
-479 -527 0
-480 -528 0
-477 -549 0
-478 -550 0
-479 -551 0
-480 -552 0
-477 -577 0
-478 -578 0
-479 -579 0
-480 -580 0
-477 -677 0
-478 -678 0
-479 -679 0
-480 -680 0
-477 -849 0
-478 -850 0
-479 -851 0
-480 -852 0
-481 -485 0
-482 -486 0
-483 -487 0
-484 -488 0
-481 -537 0
-482 -538 0
-483 -539 0
-484 -540 0
-481 -581 0
-482 -582 0
-483 -583 0
-484 -584 0
-481 -653 0
-482 -654 0
-483 -655 0
-484 -656 0
-481 -721 0
-482 -722 0
-483 -723 0
-484 -724 0
-481 -729 0
-482 -730 0
-483 -731 0
-484 -732 0
-485 -537 0
-486 -538 0
-487 -539 0
-488 -540 0
-485 -613 0
-486 -614 0
-487 -615 0
-488 -616 0
-485 -753 0
-486 -754 0
-487 -755 0
-488 -756 0
-489 -513 0
-490 -514 0
-491 -515 0
-492 -516 0
-489 -553 0
-490 -554 0
-491 -555 0
-492 -556 0
-489 -561 0
-490 -562 0
-491 -563 0
-492 -564 0
-489 -585 0
-490 -586 0
-491 -587 0
-492 -588 0
-489 -725 0
-490 -726 0
-491 -727 0
-492 -728 0
-493 -605 0
-494 -606 0
-495 -607 0
-496 -608 0
-493 -637 0
-494 -638 0
-495 -639 0
-496 -640 0
-493 -733 0
-494 -734 0
-495 -735 0
-496 -736 0
-493 -765 0
-494 -766 0
-495 -767 0
-496 -768 0
-497 -593 0
-498 -594 0
-499 -595 0
-500 -596 0
-497 -597 0
-498 -598 0
-499 -599 0
-500 -600 0
-497 -645 0
-498 -646 0
-499 -647 0
-500 -648 0
-497 -649 0
-498 -650 0
-499 -651 0
-500 -652 0
-497 -737 0
-498 -738 0
-499 -739 0
-500 -740 0
-497 -773 0
-498 -774 0
-499 -775 0
-500 -776 0
-501 -589 0
-502 -590 0
-503 -591 0
-504 -592 0
-501 -601 0
-502 -602 0
-503 -603 0
-504 -604 0
-501 -605 0
-502 -606 0
-503 -607 0
-504 -608 0
-501 -673 0
-502 -674 0
-503 -675 0
-504 -676 0
-501 -789 0
-502 -790 0
-503 -791 0
-504 -792 0
-505 -617 0
-506 -618 0
-507 -619 0
-508 -620 0
-505 -625 0
-506 -626 0
-507 -627 0
-508 -628 0
-505 -657 0
-506 -658 0
-507 -659 0
-508 -660 0
-505 -857 0
-506 -858 0
-507 -859 0
-508 -860 0
-509 -529 0
-510 -530 0
-511 -531 0
-512 -532 0
-509 -613 0
-510 -614 0
-511 -615 0
-512 -616 0
-509 -669 0
-510 -670 0
-511 -671 0
-512 -672 0
-509 -741 0
-510 -742 0
-511 -743 0
-512 -744 0
-509 -853 0
-510 -854 0
-511 -855 0
-512 -856 0
-513 -561 0
-514 -562 0
-515 -563 0
-516 -564 0
-513 -621 0
-514 -622 0
-515 -623 0
-516 -624 0
-513 -841 0
-514 -842 0
-515 -843 0
-516 -844 0
-517 -525 0
-518 -526 0
-519 -527 0
-520 -528 0
-517 -549 0
-518 -550 0
-519 -551 0
-520 -552 0
-517 -629 0
-518 -630 0
-519 -631 0
-520 -632 0
-517 -745 0
-518 -746 0
-519 -747 0
-520 -748 0
-517 -829 0
-518 -830 0
-519 -831 0
-520 -832 0
-521 -577 0
-522 -578 0
-523 -579 0
-524 -580 0
-521 -661 0
-522 -662 0
-523 -663 0
-524 -664 0
-521 -677 0
-522 -678 0
-523 -679 0
-524 -680 0
-521 -749 0
-522 -750 0
-523 -751 0
-524 -752 0
-525 -549 0
-526 -550 0
-527 -551 0
-528 -552 0
-525 -577 0
-526 -578 0
-527 -579 0
-528 -580 0
-525 -753 0
-526 -754 0
-527 -755 0
-528 -756 0
-529 -613 0
-530 -614 0
-531 -615 0
-532 -616 0
-529 -653 0
-530 -654 0
-531 -655 0
-532 -656 0
-529 -669 0
-530 -670 0
-531 -671 0
-532 -672 0
-529 -869 0
-530 -870 0
-531 -871 0
-532 -872 0
-533 -601 0
-534 -602 0
-535 -603 0
-536 -604 0
-533 -673 0
-534 -674 0
-535 -675 0
-536 -676 0
-533 -761 0
-534 -762 0
-535 -763 0
-536 -764 0
-537 -581 0
-538 -582 0
-539 -583 0
-540 -584 0
-537 -685 0
-538 -686 0
-539 -687 0
-540 -688 0
-541 -545 0
-542 -546 0
-543 -547 0
-544 -548 0
-541 -641 0
-542 -642 0
-543 -643 0
-544 -644 0
-541 -693 0
-542 -694 0
-543 -695 0
-544 -696 0
-541 -777 0
-542 -778 0
-543 -779 0
-544 -780 0
-545 -593 0
-546 -594 0
-547 -595 0
-548 -596 0
-545 -597 0
-546 -598 0
-547 -599 0
-548 -600 0
-545 -785 0
-546 -786 0
-547 -787 0
-548 -788 0
-545 -825 0
-546 -826 0
-547 -827 0
-548 -828 0
-549 -629 0
-550 -630 0
-551 -631 0
-552 -632 0
-549 -789 0
-550 -790 0
-551 -791 0
-552 -792 0
-553 -561 0
-554 -562 0
-555 -563 0
-556 -564 0
-553 -585 0
-554 -586 0
-555 -587 0
-556 -588 0
-553 -681 0
-554 -682 0
-555 -683 0
-556 -684 0
-553 -797 0
-554 -798 0
-555 -799 0
-556 -800 0
-557 -565 0
-558 -566 0
-559 -567 0
-560 -568 0
-557 -573 0
-558 -574 0
-559 -575 0
-560 -576 0
-557 -617 0
-558 -618 0
-559 -619 0
-560 -620 0
-557 -805 0
-558 -806 0
-559 -807 0
-560 -808 0
-561 -621 0
-562 -622 0
-563 -623 0
-564 -624 0
-561 -705 0
-562 -706 0
-563 -707 0
-564 -708 0
-561 -809 0
-562 -810 0
-563 -811 0
-564 -812 0
-565 -569 0
-566 -570 0
-567 -571 0
-568 -572 0
-565 -573 0
-566 -574 0
-567 -575 0
-568 -576 0
-565 -633 0
-566 -634 0
-567 -635 0
-568 -636 0
-565 -725 0
-566 -726 0
-567 -727 0
-568 -728 0
-569 -573 0
-570 -574 0
-571 -575 0
-572 -576 0
-569 -633 0
-570 -634 0
-571 -635 0
-572 -636 0
-569 -657 0
-570 -658 0
-571 -659 0
-572 -660 0
-569 -713 0
-570 -714 0
-571 -715 0
-572 -716 0
-569 -817 0
-570 -818 0
-571 -819 0
-572 -820 0
-573 -717 0
-574 -718 0
-575 -719 0
-576 -720 0
-577 -677 0
-578 -678 0
-579 -679 0
-580 -680 0
-577 -861 0
-578 -862 0
-579 -863 0
-580 -864 0
-581 -653 0
-582 -654 0
-583 -655 0
-584 -656 0
-581 -669 0
-582 -670 0
-583 -671 0
-584 -672 0
-581 -821 0
-582 -822 0
-583 -823 0
-584 -824 0
-585 -665 0
-586 -666 0
-587 -667 0
-588 -668 0
-585 -681 0
-586 -682 0
-587 -683 0
-588 -684 0
-585 -805 0
-586 -806 0
-587 -807 0
-588 -808 0
-589 -605 0
-590 -606 0
-591 -607 0
-592 -608 0
-589 -637 0
-590 -638 0
-591 -639 0
-592 -640 0
-589 -673 0
-590 -674 0
-591 -675 0
-592 -676 0
-589 -797 0
-590 -798 0
-591 -799 0
-592 -800 0
-593 -597 0
-594 -598 0
-595 -599 0
-596 -600 0
-593 -645 0
-594 -646 0
-595 -647 0
-596 -648 0
-593 -813 0
-594 -814 0
-595 -815 0
-596 -816 0
-593 -833 0
-594 -834 0
-595 -835 0
-596 -836 0
-597 -837 0
-598 -838 0
-599 -839 0
-600 -840 0
-597 -909 0
-598 -910 0
-599 -911 0
-600 -912 0
-601 -673 0
-602 -674 0
-603 -675 0
-604 -676 0
-601 -841 0
-602 -842 0
-603 -843 0
-604 -844 0
-605 -637 0
-606 -638 0
-607 -639 0
-608 -640 0
-605 -849 0
-606 -850 0
-607 -851 0
-608 -852 0
-609 -621 0
-610 -622 0
-611 -623 0
-612 -624 0
-609 -665 0
-610 -666 0
-611 -667 0
-612 -668 0
-609 -681 0
-610 -682 0
-611 -683 0
-612 -684 0
-609 -857 0
-610 -858 0
-611 -859 0
-612 -860 0
-613 -861 0
-614 -862 0
-615 -863 0
-616 -864 0
-617 -625 0
-618 -626 0
-619 -627 0
-620 -628 0
-617 -697 0
-618 -698 0
-619 -699 0
-620 -700 0
-617 -865 0
-618 -866 0
-619 -867 0
-620 -868 0
-621 -897 0
-622 -898 0
-623 -899 0
-624 -900 0
-625 -633 0
-626 -634 0
-627 -635 0
-628 -636 0
-625 -657 0
-626 -658 0
-627 -659 0
-628 -660 0
-625 -893 0
-626 -894 0
-627 -895 0
-628 -896 0
-629 -661 0
-630 -662 0
-631 -663 0
-632 -664 0
-629 -821 0
-630 -822 0
-631 -823 0
-632 -824 0
-633 -657 0
-634 -658 0
-635 -659 0
-636 -660 0
-633 -869 0
-634 -870 0
-635 -871 0
-636 -872 0
-637 -873 0
-638 -874 0
-639 -875 0
-640 -876 0
-641 -645 0
-642 -646 0
-643 -647 0
-644 -648 0
-641 -649 0
-642 -650 0
-643 -651 0
-644 -652 0
-641 -801 0
-642 -802 0
-643 -803 0
-644 -804 0
-641 -877 0
-642 -878 0
-643 -879 0
-644 -880 0
-645 -649 0
-646 -650 0
-647 -651 0
-648 -652 0
-645 -793 0
-646 -794 0
-647 -795 0
-648 -796 0
-645 -881 0
-646 -882 0
-647 -883 0
-648 -884 0
-649 -781 0
-650 -782 0
-651 -783 0
-652 -784 0
-649 -885 0
-650 -886 0
-651 -887 0
-652 -888 0
-653 -669 0
-654 -670 0
-655 -671 0
-656 -672 0
-653 -893 0
-654 -894 0
-655 -895 0
-656 -896 0
-657 -897 0
-658 -898 0
-659 -899 0
-660 -900 0
-661 -677 0
-662 -678 0
-663 -679 0
-664 -680 0
-661 -901 0
-662 -902 0
-663 -903 0
-664 -904 0
-665 -681 0
-666 -682 0
-667 -683 0
-668 -684 0
-665 -905 0
-666 -906 0
-667 -907 0
-668 -908 0
-665 -921 0
-666 -922 0
-667 -923 0
-668 -924 0
-669 -901 0
-670 -902 0
-671 -903 0
-672 -904 0
-673 -889 0
-674 -890 0
-675 -891 0
-676 -892 0
-673 -913 0
-674 -914 0
-675 -915 0
-676 -916 0
-677 -845 0
-678 -846 0
-679 -847 0
-680 -848 0
-677 -917 0
-678 -918 0
-679 -919 0
-680 -920 0
-681 -873 0
-682 -874 0
-683 -875 0
-684 -876 0
-685 -725 0
-686 -726 0
-687 -727 0
-688 -728 0
-685 -749 0
-686 -750 0
-687 -751 0
-688 -752 0
-685 -841 0
-686 -842 0
-687 -843 0
-688 -844 0
-685 -861 0
-686 -862 0
-687 -863 0
-688 -864 0
-689 -745 0
-690 -746 0
-691 -747 0
-692 -748 0
-689 -765 0
-690 -766 0
-691 -767 0
-692 -768 0
-689 -793 0
-690 -794 0
-691 -795 0
-692 -796 0
-689 -849 0
-690 -850 0
-691 -851 0
-692 -852 0
-693 -717 0
-694 -718 0
-695 -719 0
-696 -720 0
-693 -729 0
-694 -730 0
-695 -731 0
-696 -732 0
-693 -817 0
-694 -818 0
-695 -819 0
-696 -820 0
-693 -837 0
-694 -838 0
-695 -839 0
-696 -840 0
-697 -737 0
-698 -738 0
-699 -739 0
-700 -740 0
-697 -781 0
-698 -782 0
-699 -783 0
-700 -784 0
-697 -809 0
-698 -810 0
-699 -811 0
-700 -812 0
-697 -897 0
-698 -898 0
-699 -899 0
-700 -900 0
-701 -705 0
-702 -706 0
-703 -707 0
-704 -708 0
-701 -769 0
-702 -770 0
-703 -771 0
-704 -772 0
-701 -785 0
-702 -786 0
-703 -787 0
-704 -788 0
-701 -913 0
-702 -914 0
-703 -915 0
-704 -916 0
-705 -733 0
-706 -734 0
-707 -735 0
-708 -736 0
-705 -769 0
-706 -770 0
-707 -771 0
-708 -772 0
-705 -885 0
-706 -886 0
-707 -887 0
-708 -888 0
-709 -741 0
-710 -742 0
-711 -743 0
-712 -744 0
-709 -753 0
-710 -754 0
-711 -755 0
-712 -756 0
-709 -801 0
-710 -802 0
-711 -803 0
-712 -804 0
-709 -829 0
-710 -830 0
-711 -831 0
-712 -832 0
-713 -777 0
-714 -778 0
-715 -779 0
-716 -780 0
-713 -805 0
-714 -806 0
-715 -807 0
-716 -808 0
-713 -825 0
-714 -826 0
-715 -827 0
-716 -828 0
-713 -905 0
-714 -906 0
-715 -907 0
-716 -908 0
-717 -729 0
-718 -730 0
-719 -731 0
-720 -732 0
-717 -837 0
-718 -838 0
-719 -839 0
-720 -840 0
-717 -865 0
-718 -866 0
-719 -867 0
-720 -868 0
-721 -801 0
-722 -802 0
-723 -803 0
-724 -804 0
-721 -845 0
-722 -846 0
-723 -847 0
-724 -848 0
-721 -881 0
-722 -882 0
-723 -883 0
-724 -884 0
-721 -901 0
-722 -902 0
-723 -903 0
-724 -904 0
-725 -749 0
-726 -750 0
-727 -751 0
-728 -752 0
-725 -821 0
-726 -822 0
-727 -823 0
-728 -824 0
-725 -873 0
-726 -874 0
-727 -875 0
-728 -876 0
-729 -817 0
-730 -818 0
-731 -819 0
-732 -820 0
-729 -877 0
-730 -878 0
-731 -879 0
-732 -880 0
-733 -769 0
-734 -770 0
-735 -771 0
-736 -772 0
-733 -797 0
-734 -798 0
-735 -799 0
-736 -800 0
-733 -885 0
-734 -886 0
-735 -887 0
-736 -888 0
-737 -805 0
-738 -806 0
-739 -807 0
-740 -808 0
-737 -809 0
-738 -810 0
-739 -811 0
-740 -812 0
-737 -825 0
-738 -826 0
-739 -827 0
-740 -828 0
-741 -753 0
-742 -754 0
-743 -755 0
-744 -756 0
-741 -829 0
-742 -830 0
-743 -831 0
-744 -832 0
-741 -909 0
-742 -910 0
-743 -911 0
-744 -912 0
-745 -757 0
-746 -758 0
-747 -759 0
-748 -760 0
-745 -765 0
-746 -766 0
-747 -767 0
-748 -768 0
-745 -849 0
-746 -850 0
-747 -851 0
-748 -852 0
-749 -821 0
-750 -822 0
-751 -823 0
-752 -824 0
-749 -841 0
-750 -842 0
-751 -843 0
-752 -844 0
-753 -801 0
-754 -802 0
-755 -803 0
-756 -804 0
-753 -845 0
-754 -846 0
-755 -847 0
-756 -848 0
-757 -761 0
-758 -762 0
-759 -763 0
-760 -764 0
-757 -765 0
-758 -766 0
-759 -767 0
-760 -768 0
-757 -833 0
-758 -834 0
-759 -835 0
-760 -836 0
-761 -765 0
-762 -766 0
-763 -767 0
-764 -768 0
-761 -833 0
-762 -834 0
-763 -835 0
-764 -836 0
-761 -917 0
-762 -918 0
-763 -919 0
-764 -920 0
-769 -785 0
-770 -786 0
-771 -787 0
-772 -788 0
-773 -853 0
-774 -854 0
-775 -855 0
-776 -856 0
-773 -865 0
-774 -866 0
-775 -867 0
-776 -868 0
-773 -877 0
-774 -878 0
-775 -879 0
-776 -880 0
-773 -893 0
-774 -894 0
-775 -895 0
-776 -896 0
-777 -781 0
-778 -782 0
-779 -783 0
-780 -784 0
-777 -897 0
-778 -898 0
-779 -899 0
-780 -900 0
-777 -905 0
-778 -906 0
-779 -907 0
-780 -908 0
-781 -809 0
-782 -810 0
-783 -811 0
-784 -812 0
-781 -897 0
-782 -898 0
-783 -899 0
-784 -900 0
-785 -913 0
-786 -914 0
-787 -915 0
-788 -916 0
-785 -921 0
-786 -922 0
-787 -923 0
-788 -924 0
-789 -857 0
-790 -858 0
-791 -859 0
-792 -860 0
-789 -861 0
-790 -862 0
-791 -863 0
-792 -864 0
-789 -869 0
-790 -870 0
-791 -871 0
-792 -872 0
-789 -873 0
-790 -874 0
-791 -875 0
-792 -876 0
-793 -849 0
-794 -850 0
-795 -851 0
-796 -852 0
-793 -889 0
-794 -890 0
-795 -891 0
-796 -892 0
-793 -917 0
-794 -918 0
-795 -919 0
-796 -920 0
-797 -813 0
-798 -814 0
-799 -815 0
-800 -816 0
-797 -885 0
-798 -886 0
-799 -887 0
-800 -888 0
-797 -921 0
-798 -922 0
-799 -923 0
-800 -924 0
-801 -845 0
-802 -846 0
-803 -847 0
-804 -848 0
-805 -809 0
-806 -810 0
-807 -811 0
-808 -812 0
-805 -825 0
-806 -826 0
-807 -827 0
-808 -828 0
-813 -885 0
-814 -886 0
-815 -887 0
-816 -888 0
-813 -913 0
-814 -914 0
-815 -915 0
-816 -916 0
-813 -921 0
-814 -922 0
-815 -923 0
-816 -924 0
-817 -877 0
-818 -878 0
-819 -879 0
-820 -880 0
-817 -893 0
-818 -894 0
-819 -895 0
-820 -896 0
-821 -869 0
-822 -870 0
-823 -871 0
-824 -872 0
-821 -873 0
-822 -874 0
-823 -875 0
-824 -876 0
-825 -905 0
-826 -906 0
-827 -907 0
-828 -908 0
-829 -901 0
-830 -902 0
-831 -903 0
-832 -904 0
-829 -909 0
-830 -910 0
-831 -911 0
-832 -912 0
-833 -889 0
-834 -890 0
-835 -891 0
-836 -892 0
-833 -917 0
-834 -918 0
-835 -919 0
-836 -920 0
-837 -853 0
-838 -854 0
-839 -855 0
-840 -856 0
-837 -865 0
-838 -866 0
-839 -867 0
-840 -868 0
-841 -857 0
-842 -858 0
-843 -859 0
-844 -860 0
-841 -861 0
-842 -862 0
-843 -863 0
-844 -864 0
-845 -881 0
-846 -882 0
-847 -883 0
-848 -884 0
-849 -889 0
-850 -890 0
-851 -891 0
-852 -892 0
-853 -865 0
-854 -866 0
-855 -867 0
-856 -868 0
-853 -893 0
-854 -894 0
-855 -895 0
-856 -896 0
-857 -861 0
-858 -862 0
-859 -863 0
-860 -864 0
-857 -869 0
-858 -870 0
-859 -871 0
-860 -872 0
-869 -873 0
-870 -874 0
-871 -875 0
-872 -876 0
-877 -893 0
-878 -894 0
-879 -895 0
-880 -896 0
-881 -901 0
-882 -902 0
-883 -903 0
-884 -904 0
-881 -909 0
-882 -910 0
-883 -911 0
-884 -912 0
-889 -917 0
-890 -918 0
-891 -919 0
-892 -920 0
-897 -905 0
-898 -906 0
-899 -907 0
-900 -908 0
-901 -909 0
-902 -910 0
-903 -911 0
-904 -912 0
-913 -921 0
-914 -922 0
-915 -923 0
-916 -924 0
-1 -2 0
-1 -3 0
-1 -4 0
-2 -3 0
-2 -4 0
-3 -4 0
-5 -6 0
-5 -7 0
-5 -8 0
-6 -7 0
-6 -8 0
-7 -8 0
-9 -10 0
-9 -11 0
-9 -12 0
-10 -11 0
-10 -12 0
-11 -12 0
-13 -14 0
-13 -15 0
-13 -16 0
-14 -15 0
-14 -16 0
-15 -16 0
-17 -18 0
-17 -19 0
-17 -20 0
-18 -19 0
-18 -20 0
-19 -20 0
-21 -22 0
-21 -23 0
-21 -24 0
-22 -23 0
-22 -24 0
-23 -24 0
-25 -26 0
-25 -27 0
-25 -28 0
-26 -27 0
-26 -28 0
-27 -28 0
-29 -30 0
-29 -31 0
-29 -32 0
-30 -31 0
-30 -32 0
-31 -32 0
-33 -34 0
-33 -35 0
-33 -36 0
-34 -35 0
-34 -36 0
-35 -36 0
-37 -38 0
-37 -39 0
-37 -40 0
-38 -39 0
-38 -40 0
-39 -40 0
-41 -42 0
-41 -43 0
-41 -44 0
-42 -43 0
-42 -44 0
-43 -44 0
-45 -46 0
-45 -47 0
-45 -48 0
-46 -47 0
-46 -48 0
-47 -48 0
-49 -50 0
-49 -51 0
-49 -52 0
-50 -51 0
-50 -52 0
-51 -52 0
-53 -54 0
-53 -55 0
-53 -56 0
-54 -55 0
-54 -56 0
-55 -56 0
-57 -58 0
-57 -59 0
-57 -60 0
-58 -59 0
-58 -60 0
-59 -60 0
-61 -62 0
-61 -63 0
-61 -64 0
-62 -63 0
-62 -64 0
-63 -64 0
-65 -66 0
-65 -67 0
-65 -68 0
-66 -67 0
-66 -68 0
-67 -68 0
-69 -70 0
-69 -71 0
-69 -72 0
-70 -71 0
-70 -72 0
-71 -72 0
-73 -74 0
-73 -75 0
-73 -76 0
-74 -75 0
-74 -76 0
-75 -76 0
-77 -78 0
-77 -79 0
-77 -80 0
-78 -79 0
-78 -80 0
-79 -80 0
-81 -82 0
-81 -83 0
-81 -84 0
-82 -83 0
-82 -84 0
-83 -84 0
-85 -86 0
-85 -87 0
-85 -88 0
-86 -87 0
-86 -88 0
-87 -88 0
-89 -90 0
-89 -91 0
-89 -92 0
-90 -91 0
-90 -92 0
-91 -92 0
-93 -94 0
-93 -95 0
-93 -96 0
-94 -95 0
-94 -96 0
-95 -96 0
-97 -98 0
-97 -99 0
-97 -100 0
-98 -99 0
-98 -100 0
-99 -100 0
-101 -102 0
-101 -103 0
-101 -104 0
-102 -103 0
-102 -104 0
-103 -104 0
-105 -106 0
-105 -107 0
-105 -108 0
-106 -107 0
-106 -108 0
-107 -108 0
-109 -110 0
-109 -111 0
-109 -112 0
-110 -111 0
-110 -112 0
-111 -112 0
-113 -114 0
-113 -115 0
-113 -116 0
-114 -115 0
-114 -116 0
-115 -116 0
-117 -118 0
-117 -119 0
-117 -120 0
-118 -119 0
-118 -120 0
-119 -120 0
-121 -122 0
-121 -123 0
-121 -124 0
-122 -123 0
-122 -124 0
-123 -124 0
-125 -126 0
-125 -127 0
-125 -128 0
-126 -127 0
-126 -128 0
-127 -128 0
-129 -130 0
-129 -131 0
-129 -132 0
-130 -131 0
-130 -132 0
-131 -132 0
-133 -134 0
-133 -135 0
-133 -136 0
-134 -135 0
-134 -136 0
-135 -136 0
-137 -138 0
-137 -139 0
-137 -140 0
-138 -139 0
-138 -140 0
-139 -140 0
-141 -142 0
-141 -143 0
-141 -144 0
-142 -143 0
-142 -144 0
-143 -144 0
-145 -146 0
-145 -147 0
-145 -148 0
-146 -147 0
-146 -148 0
-147 -148 0
-149 -150 0
-149 -151 0
-149 -152 0
-150 -151 0
-150 -152 0
-151 -152 0
-153 -154 0
-153 -155 0
-153 -156 0
-154 -155 0
-154 -156 0
-155 -156 0
-157 -158 0
-157 -159 0
-157 -160 0
-158 -159 0
-158 -160 0
-159 -160 0
-161 -162 0
-161 -163 0
-161 -164 0
-162 -163 0
-162 -164 0
-163 -164 0
-165 -166 0
-165 -167 0
-165 -168 0
-166 -167 0
-166 -168 0
-167 -168 0
-169 -170 0
-169 -171 0
-169 -172 0
-170 -171 0
-170 -172 0
-171 -172 0
-173 -174 0
-173 -175 0
-173 -176 0
-174 -175 0
-174 -176 0
-175 -176 0
-177 -178 0
-177 -179 0
-177 -180 0
-178 -179 0
-178 -180 0
-179 -180 0
-181 -182 0
-181 -183 0
-181 -184 0
-182 -183 0
-182 -184 0
-183 -184 0
-185 -186 0
-185 -187 0
-185 -188 0
-186 -187 0
-186 -188 0
-187 -188 0
-189 -190 0
-189 -191 0
-189 -192 0
-190 -191 0
-190 -192 0
-191 -192 0
-193 -194 0
-193 -195 0
-193 -196 0
-194 -195 0
-194 -196 0
-195 -196 0
-197 -198 0
-197 -199 0
-197 -200 0
-198 -199 0
-198 -200 0
-199 -200 0
-201 -202 0
-201 -203 0
-201 -204 0
-202 -203 0
-202 -204 0
-203 -204 0
-205 -206 0
-205 -207 0
-205 -208 0
-206 -207 0
-206 -208 0
-207 -208 0
-209 -210 0
-209 -211 0
-209 -212 0
-210 -211 0
-210 -212 0
-211 -212 0
-213 -214 0
-213 -215 0
-213 -216 0
-214 -215 0
-214 -216 0
-215 -216 0
-217 -218 0
-217 -219 0
-217 -220 0
-218 -219 0
-218 -220 0
-219 -220 0
-221 -222 0
-221 -223 0
-221 -224 0
-222 -223 0
-222 -224 0
-223 -224 0
-225 -226 0
-225 -227 0
-225 -228 0
-226 -227 0
-226 -228 0
-227 -228 0
-229 -230 0
-229 -231 0
-229 -232 0
-230 -231 0
-230 -232 0
-231 -232 0
-233 -234 0
-233 -235 0
-233 -236 0
-234 -235 0
-234 -236 0
-235 -236 0
-237 -238 0
-237 -239 0
-237 -240 0
-238 -239 0
-238 -240 0
-239 -240 0
-241 -242 0
-241 -243 0
-241 -244 0
-242 -243 0
-242 -244 0
-243 -244 0
-245 -246 0
-245 -247 0
-245 -248 0
-246 -247 0
-246 -248 0
-247 -248 0
-249 -250 0
-249 -251 0
-249 -252 0
-250 -251 0
-250 -252 0
-251 -252 0
-253 -254 0
-253 -255 0
-253 -256 0
-254 -255 0
-254 -256 0
-255 -256 0
-257 -258 0
-257 -259 0
-257 -260 0
-258 -259 0
-258 -260 0
-259 -260 0
-261 -262 0
-261 -263 0
-261 -264 0
-262 -263 0
-262 -264 0
-263 -264 0
-265 -266 0
-265 -267 0
-265 -268 0
-266 -267 0
-266 -268 0
-267 -268 0
-269 -270 0
-269 -271 0
-269 -272 0
-270 -271 0
-270 -272 0
-271 -272 0
-273 -274 0
-273 -275 0
-273 -276 0
-274 -275 0
-274 -276 0
-275 -276 0
-277 -278 0
-277 -279 0
-277 -280 0
-278 -279 0
-278 -280 0
-279 -280 0
-281 -282 0
-281 -283 0
-281 -284 0
-282 -283 0
-282 -284 0
-283 -284 0
-285 -286 0
-285 -287 0
-285 -288 0
-286 -287 0
-286 -288 0
-287 -288 0
-289 -290 0
-289 -291 0
-289 -292 0
-290 -291 0
-290 -292 0
-291 -292 0
-293 -294 0
-293 -295 0
-293 -296 0
-294 -295 0
-294 -296 0
-295 -296 0
-297 -298 0
-297 -299 0
-297 -300 0
-298 -299 0
-298 -300 0
-299 -300 0
-301 -302 0
-301 -303 0
-301 -304 0
-302 -303 0
-302 -304 0
-303 -304 0
-305 -306 0
-305 -307 0
-305 -308 0
-306 -307 0
-306 -308 0
-307 -308 0
-309 -310 0
-309 -311 0
-309 -312 0
-310 -311 0
-310 -312 0
-311 -312 0
-313 -314 0
-313 -315 0
-313 -316 0
-314 -315 0
-314 -316 0
-315 -316 0
-317 -318 0
-317 -319 0
-317 -320 0
-318 -319 0
-318 -320 0
-319 -320 0
-321 -322 0
-321 -323 0
-321 -324 0
-322 -323 0
-322 -324 0
-323 -324 0
-325 -326 0
-325 -327 0
-325 -328 0
-326 -327 0
-326 -328 0
-327 -328 0
-329 -330 0
-329 -331 0
-329 -332 0
-330 -331 0
-330 -332 0
-331 -332 0
-333 -334 0
-333 -335 0
-333 -336 0
-334 -335 0
-334 -336 0
-335 -336 0
-337 -338 0
-337 -339 0
-337 -340 0
-338 -339 0
-338 -340 0
-339 -340 0
-341 -342 0
-341 -343 0
-341 -344 0
-342 -343 0
-342 -344 0
-343 -344 0
-345 -346 0
-345 -347 0
-345 -348 0
-346 -347 0
-346 -348 0
-347 -348 0
-349 -350 0
-349 -351 0
-349 -352 0
-350 -351 0
-350 -352 0
-351 -352 0
-353 -354 0
-353 -355 0
-353 -356 0
-354 -355 0
-354 -356 0
-355 -356 0
-357 -358 0
-357 -359 0
-357 -360 0
-358 -359 0
-358 -360 0
-359 -360 0
-361 -362 0
-361 -363 0
-361 -364 0
-362 -363 0
-362 -364 0
-363 -364 0
-365 -366 0
-365 -367 0
-365 -368 0
-366 -367 0
-366 -368 0
-367 -368 0
-369 -370 0
-369 -371 0
-369 -372 0
-370 -371 0
-370 -372 0
-371 -372 0
-373 -374 0
-373 -375 0
-373 -376 0
-374 -375 0
-374 -376 0
-375 -376 0
-377 -378 0
-377 -379 0
-377 -380 0
-378 -379 0
-378 -380 0
-379 -380 0
-381 -382 0
-381 -383 0
-381 -384 0
-382 -383 0
-382 -384 0
-383 -384 0
-385 -386 0
-385 -387 0
-385 -388 0
-386 -387 0
-386 -388 0
-387 -388 0
-389 -390 0
-389 -391 0
-389 -392 0
-390 -391 0
-390 -392 0
-391 -392 0
-393 -394 0
-393 -395 0
-393 -396 0
-394 -395 0
-394 -396 0
-395 -396 0
-397 -398 0
-397 -399 0
-397 -400 0
-398 -399 0
-398 -400 0
-399 -400 0
-401 -402 0
-401 -403 0
-401 -404 0
-402 -403 0
-402 -404 0
-403 -404 0
-405 -406 0
-405 -407 0
-405 -408 0
-406 -407 0
-406 -408 0
-407 -408 0
-409 -410 0
-409 -411 0
-409 -412 0
-410 -411 0
-410 -412 0
-411 -412 0
-413 -414 0
-413 -415 0
-413 -416 0
-414 -415 0
-414 -416 0
-415 -416 0
-417 -418 0
-417 -419 0
-417 -420 0
-418 -419 0
-418 -420 0
-419 -420 0
-421 -422 0
-421 -423 0
-421 -424 0
-422 -423 0
-422 -424 0
-423 -424 0
-425 -426 0
-425 -427 0
-425 -428 0
-426 -427 0
-426 -428 0
-427 -428 0
-429 -430 0
-429 -431 0
-429 -432 0
-430 -431 0
-430 -432 0
-431 -432 0
-433 -434 0
-433 -435 0
-433 -436 0
-434 -435 0
-434 -436 0
-435 -436 0
-437 -438 0
-437 -439 0
-437 -440 0
-438 -439 0
-438 -440 0
-439 -440 0
-441 -442 0
-441 -443 0
-441 -444 0
-442 -443 0
-442 -444 0
-443 -444 0
-445 -446 0
-445 -447 0
-445 -448 0
-446 -447 0
-446 -448 0
-447 -448 0
-449 -450 0
-449 -451 0
-449 -452 0
-450 -451 0
-450 -452 0
-451 -452 0
-453 -454 0
-453 -455 0
-453 -456 0
-454 -455 0
-454 -456 0
-455 -456 0
-457 -458 0
-457 -459 0
-457 -460 0
-458 -459 0
-458 -460 0
-459 -460 0
-461 -462 0
-461 -463 0
-461 -464 0
-462 -463 0
-462 -464 0
-463 -464 0
-465 -466 0
-465 -467 0
-465 -468 0
-466 -467 0
-466 -468 0
-467 -468 0
-469 -470 0
-469 -471 0
-469 -472 0
-470 -471 0
-470 -472 0
-471 -472 0
-473 -474 0
-473 -475 0
-473 -476 0
-474 -475 0
-474 -476 0
-475 -476 0
-477 -478 0
-477 -479 0
-477 -480 0
-478 -479 0
-478 -480 0
-479 -480 0
-481 -482 0
-481 -483 0
-481 -484 0
-482 -483 0
-482 -484 0
-483 -484 0
-485 -486 0
-485 -487 0
-485 -488 0
-486 -487 0
-486 -488 0
-487 -488 0
-489 -490 0
-489 -491 0
-489 -492 0
-490 -491 0
-490 -492 0
-491 -492 0
-493 -494 0
-493 -495 0
-493 -496 0
-494 -495 0
-494 -496 0
-495 -496 0
-497 -498 0
-497 -499 0
-497 -500 0
-498 -499 0
-498 -500 0
-499 -500 0
-501 -502 0
-501 -503 0
-501 -504 0
-502 -503 0
-502 -504 0
-503 -504 0
-505 -506 0
-505 -507 0
-505 -508 0
-506 -507 0
-506 -508 0
-507 -508 0
-509 -510 0
-509 -511 0
-509 -512 0
-510 -511 0
-510 -512 0
-511 -512 0
-513 -514 0
-513 -515 0
-513 -516 0
-514 -515 0
-514 -516 0
-515 -516 0
-517 -518 0
-517 -519 0
-517 -520 0
-518 -519 0
-518 -520 0
-519 -520 0
-521 -522 0
-521 -523 0
-521 -524 0
-522 -523 0
-522 -524 0
-523 -524 0
-525 -526 0
-525 -527 0
-525 -528 0
-526 -527 0
-526 -528 0
-527 -528 0
-529 -530 0
-529 -531 0
-529 -532 0
-530 -531 0
-530 -532 0
-531 -532 0
-533 -534 0
-533 -535 0
-533 -536 0
-534 -535 0
-534 -536 0
-535 -536 0
-537 -538 0
-537 -539 0
-537 -540 0
-538 -539 0
-538 -540 0
-539 -540 0
-541 -542 0
-541 -543 0
-541 -544 0
-542 -543 0
-542 -544 0
-543 -544 0
-545 -546 0
-545 -547 0
-545 -548 0
-546 -547 0
-546 -548 0
-547 -548 0
-549 -550 0
-549 -551 0
-549 -552 0
-550 -551 0
-550 -552 0
-551 -552 0
-553 -554 0
-553 -555 0
-553 -556 0
-554 -555 0
-554 -556 0
-555 -556 0
-557 -558 0
-557 -559 0
-557 -560 0
-558 -559 0
-558 -560 0
-559 -560 0
-561 -562 0
-561 -563 0
-561 -564 0
-562 -563 0
-562 -564 0
-563 -564 0
-565 -566 0
-565 -567 0
-565 -568 0
-566 -567 0
-566 -568 0
-567 -568 0
-569 -570 0
-569 -571 0
-569 -572 0
-570 -571 0
-570 -572 0
-571 -572 0
-573 -574 0
-573 -575 0
-573 -576 0
-574 -575 0
-574 -576 0
-575 -576 0
-577 -578 0
-577 -579 0
-577 -580 0
-578 -579 0
-578 -580 0
-579 -580 0
-581 -582 0
-581 -583 0
-581 -584 0
-582 -583 0
-582 -584 0
-583 -584 0
-585 -586 0
-585 -587 0
-585 -588 0
-586 -587 0
-586 -588 0
-587 -588 0
-589 -590 0
-589 -591 0
-589 -592 0
-590 -591 0
-590 -592 0
-591 -592 0
-593 -594 0
-593 -595 0
-593 -596 0
-594 -595 0
-594 -596 0
-595 -596 0
-597 -598 0
-597 -599 0
-597 -600 0
-598 -599 0
-598 -600 0
-599 -600 0
-601 -602 0
-601 -603 0
-601 -604 0
-602 -603 0
-602 -604 0
-603 -604 0
-605 -606 0
-605 -607 0
-605 -608 0
-606 -607 0
-606 -608 0
-607 -608 0
-609 -610 0
-609 -611 0
-609 -612 0
-610 -611 0
-610 -612 0
-611 -612 0
-613 -614 0
-613 -615 0
-613 -616 0
-614 -615 0
-614 -616 0
-615 -616 0
-617 -618 0
-617 -619 0
-617 -620 0
-618 -619 0
-618 -620 0
-619 -620 0
-621 -622 0
-621 -623 0
-621 -624 0
-622 -623 0
-622 -624 0
-623 -624 0
-625 -626 0
-625 -627 0
-625 -628 0
-626 -627 0
-626 -628 0
-627 -628 0
-629 -630 0
-629 -631 0
-629 -632 0
-630 -631 0
-630 -632 0
-631 -632 0
-633 -634 0
-633 -635 0
-633 -636 0
-634 -635 0
-634 -636 0
-635 -636 0
-637 -638 0
-637 -639 0
-637 -640 0
-638 -639 0
-638 -640 0
-639 -640 0
-641 -642 0
-641 -643 0
-641 -644 0
-642 -643 0
-642 -644 0
-643 -644 0
-645 -646 0
-645 -647 0
-645 -648 0
-646 -647 0
-646 -648 0
-647 -648 0
-649 -650 0
-649 -651 0
-649 -652 0
-650 -651 0
-650 -652 0
-651 -652 0
-653 -654 0
-653 -655 0
-653 -656 0
-654 -655 0
-654 -656 0
-655 -656 0
-657 -658 0
-657 -659 0
-657 -660 0
-658 -659 0
-658 -660 0
-659 -660 0
-661 -662 0
-661 -663 0
-661 -664 0
-662 -663 0
-662 -664 0
-663 -664 0
-665 -666 0
-665 -667 0
-665 -668 0
-666 -667 0
-666 -668 0
-667 -668 0
-669 -670 0
-669 -671 0
-669 -672 0
-670 -671 0
-670 -672 0
-671 -672 0
-673 -674 0
-673 -675 0
-673 -676 0
-674 -675 0
-674 -676 0
-675 -676 0
-677 -678 0
-677 -679 0
-677 -680 0
-678 -679 0
-678 -680 0
-679 -680 0
-681 -682 0
-681 -683 0
-681 -684 0
-682 -683 0
-682 -684 0
-683 -684 0
-685 -686 0
-685 -687 0
-685 -688 0
-686 -687 0
-686 -688 0
-687 -688 0
-689 -690 0
-689 -691 0
-689 -692 0
-690 -691 0
-690 -692 0
-691 -692 0
-693 -694 0
-693 -695 0
-693 -696 0
-694 -695 0
-694 -696 0
-695 -696 0
-697 -698 0
-697 -699 0
-697 -700 0
-698 -699 0
-698 -700 0
-699 -700 0
-701 -702 0
-701 -703 0
-701 -704 0
-702 -703 0
-702 -704 0
-703 -704 0
-705 -706 0
-705 -707 0
-705 -708 0
-706 -707 0
-706 -708 0
-707 -708 0
-709 -710 0
-709 -711 0
-709 -712 0
-710 -711 0
-710 -712 0
-711 -712 0
-713 -714 0
-713 -715 0
-713 -716 0
-714 -715 0
-714 -716 0
-715 -716 0
-717 -718 0
-717 -719 0
-717 -720 0
-718 -719 0
-718 -720 0
-719 -720 0
-721 -722 0
-721 -723 0
-721 -724 0
-722 -723 0
-722 -724 0
-723 -724 0
-725 -726 0
-725 -727 0
-725 -728 0
-726 -727 0
-726 -728 0
-727 -728 0
-729 -730 0
-729 -731 0
-729 -732 0
-730 -731 0
-730 -732 0
-731 -732 0
-733 -734 0
-733 -735 0
-733 -736 0
-734 -735 0
-734 -736 0
-735 -736 0
-737 -738 0
-737 -739 0
-737 -740 0
-738 -739 0
-738 -740 0
-739 -740 0
-741 -742 0
-741 -743 0
-741 -744 0
-742 -743 0
-742 -744 0
-743 -744 0
-745 -746 0
-745 -747 0
-745 -748 0
-746 -747 0
-746 -748 0
-747 -748 0
-749 -750 0
-749 -751 0
-749 -752 0
-750 -751 0
-750 -752 0
-751 -752 0
-753 -754 0
-753 -755 0
-753 -756 0
-754 -755 0
-754 -756 0
-755 -756 0
-757 -758 0
-757 -759 0
-757 -760 0
-758 -759 0
-758 -760 0
-759 -760 0
-761 -762 0
-761 -763 0
-761 -764 0
-762 -763 0
-762 -764 0
-763 -764 0
-765 -766 0
-765 -767 0
-765 -768 0
-766 -767 0
-766 -768 0
-767 -768 0
-769 -770 0
-769 -771 0
-769 -772 0
-770 -771 0
-770 -772 0
-771 -772 0
-773 -774 0
-773 -775 0
-773 -776 0
-774 -775 0
-774 -776 0
-775 -776 0
-777 -778 0
-777 -779 0
-777 -780 0
-778 -779 0
-778 -780 0
-779 -780 0
-781 -782 0
-781 -783 0
-781 -784 0
-782 -783 0
-782 -784 0
-783 -784 0
-785 -786 0
-785 -787 0
-785 -788 0
-786 -787 0
-786 -788 0
-787 -788 0
-789 -790 0
-789 -791 0
-789 -792 0
-790 -791 0
-790 -792 0
-791 -792 0
-793 -794 0
-793 -795 0
-793 -796 0
-794 -795 0
-794 -796 0
-795 -796 0
-797 -798 0
-797 -799 0
-797 -800 0
-798 -799 0
-798 -800 0
-799 -800 0
-801 -802 0
-801 -803 0
-801 -804 0
-802 -803 0
-802 -804 0
-803 -804 0
-805 -806 0
-805 -807 0
-805 -808 0
-806 -807 0
-806 -808 0
-807 -808 0
-809 -810 0
-809 -811 0
-809 -812 0
-810 -811 0
-810 -812 0
-811 -812 0
-813 -814 0
-813 -815 0
-813 -816 0
-814 -815 0
-814 -816 0
-815 -816 0
-817 -818 0
-817 -819 0
-817 -820 0
-818 -819 0
-818 -820 0
-819 -820 0
-821 -822 0
-821 -823 0
-821 -824 0
-822 -823 0
-822 -824 0
-823 -824 0
-825 -826 0
-825 -827 0
-825 -828 0
-826 -827 0
-826 -828 0
-827 -828 0
-829 -830 0
-829 -831 0
-829 -832 0
-830 -831 0
-830 -832 0
-831 -832 0
-833 -834 0
-833 -835 0
-833 -836 0
-834 -835 0
-834 -836 0
-835 -836 0
-837 -838 0
-837 -839 0
-837 -840 0
-838 -839 0
-838 -840 0
-839 -840 0
-841 -842 0
-841 -843 0
-841 -844 0
-842 -843 0
-842 -844 0
-843 -844 0
-845 -846 0
-845 -847 0
-845 -848 0
-846 -847 0
-846 -848 0
-847 -848 0
-849 -850 0
-849 -851 0
-849 -852 0
-850 -851 0
-850 -852 0
-851 -852 0
-853 -854 0
-853 -855 0
-853 -856 0
-854 -855 0
-854 -856 0
-855 -856 0
-857 -858 0
-857 -859 0
-857 -860 0
-858 -859 0
-858 -860 0
-859 -860 0
-861 -862 0
-861 -863 0
-861 -864 0
-862 -863 0
-862 -864 0
-863 -864 0
-865 -866 0
-865 -867 0
-865 -868 0
-866 -867 0
-866 -868 0
-867 -868 0
-869 -870 0
-869 -871 0
-869 -872 0
-870 -871 0
-870 -872 0
-871 -872 0
-873 -874 0
-873 -875 0
-873 -876 0
-874 -875 0
-874 -876 0
-875 -876 0
-877 -878 0
-877 -879 0
-877 -880 0
-878 -879 0
-878 -880 0
-879 -880 0
-881 -882 0
-881 -883 0
-881 -884 0
-882 -883 0
-882 -884 0
-883 -884 0
-885 -886 0
-885 -887 0
-885 -888 0
-886 -887 0
-886 -888 0
-887 -888 0
-889 -890 0
-889 -891 0
-889 -892 0
-890 -891 0
-890 -892 0
-891 -892 0
-893 -894 0
-893 -895 0
-893 -896 0
-894 -895 0
-894 -896 0
-895 -896 0
-897 -898 0
-897 -899 0
-897 -900 0
-898 -899 0
-898 -900 0
-899 -900 0
-901 -902 0
-901 -903 0
-901 -904 0
-902 -903 0
-902 -904 0
-903 -904 0
-905 -906 0
-905 -907 0
-905 -908 0
-906 -907 0
-906 -908 0
-907 -908 0
-909 -910 0
-909 -911 0
-909 -912 0
-910 -911 0
-910 -912 0
-911 -912 0
-913 -914 0
-913 -915 0
-913 -916 0
-914 -915 0
-914 -916 0
-915 -916 0
-917 -918 0
-917 -919 0
-917 -920 0
-918 -919 0
-918 -920 0
-919 -920 0
-921 -922 0
-921 -923 0
-921 -924 0
-922 -923 0
-922 -924 0
-923 -924 0
1 0
10 0
